# %Strain vs Sigma_xx-Sigma_yy.
0	0	0
0.0125	2.01923e+07	0
0.025	4.03846e+07	0
0.0375	6.05769e+07	0
0.05	8.07692e+07	0
0.0625	1.00961e+08	0
0.075	1.21154e+08	0
0.0875	1.41346e+08	0
0.1	1.61538e+08	0
0.1125	1.81731e+08	0
0.125	1.9563e+08	3.31909e-05
0.1375	1.90965e+08	0.000167491
0.15	1.86638e+08	0.000303032
0.1625	1.82644e+08	0.000439663
0.175	1.78969e+08	0.000577252
0.1875	1.75602e+08	0.000715678
0.2	1.72525e+08	0.000854836
0.2125	1.69721e+08	0.000994633
0.225	1.67171e+08	0.00113499
0.2375	1.64859e+08	0.00127583
0.25	1.62766e+08	0.00141709
0.2625	1.60874e+08	0.00155873
0.275	1.59166e+08	0.00170069
0.2875	1.57626e+08	0.00184294
0.3	1.56241e+08	0.00198543
0.3125	1.54994e+08	0.00212814
0.325	1.53875e+08	0.00227104
0.3375	1.52869e+08	0.00241411
0.35	1.51968e+08	0.00255732
0.3625	1.51159e+08	0.00270066
0.375	1.50434e+08	0.00284412
0.3875	1.49786e+08	0.00298767
0.4	1.49205e+08	0.00313132
0.4125	1.48685e+08	0.00327504
0.425	1.48221e+08	0.00341883
0.4375	1.47805e+08	0.00356269
0.45	1.47433e+08	0.0037066
0.4625	1.47101e+08	0.00385055
0.475	1.46805e+08	0.00399455
0.4875	1.46539e+08	0.00413858
0.475	1.26347e+08	0.00413858
0.4625	1.06155e+08	0.00413858
0.45	8.59626e+07	0.00413858
0.4375	6.57703e+07	0.00413858
0.425	4.5578e+07	0.00413858
0.4125	2.53857e+07	0.00413858
0.4	5.19335e+06	0.00413858
0.3875	-1.49989e+07	0.00413858
0.375	-3.51912e+07	0.00413858
0.3625	-5.53835e+07	0.00413858
0.35	-7.55758e+07	0.00413858
0.3375	-9.57681e+07	0.00413858
0.325	-1.1596e+08	0.00413858
0.3125	-1.36153e+08	0.00413858
0.3	-1.56345e+08	0.00413858
0.2875	-1.76537e+08	0.00413858
0.275	-1.9673e+08	0.00413858
0.2625	-2.16922e+08	0.00413858
0.25	-2.37114e+08	0.00413858
0.2375	-2.31532e+08	0.00425344
0.225	-2.25046e+08	0.00437575
0.2125	-2.18771e+08	0.00450057
0.2	-2.12754e+08	0.00462768
0.1875	-2.07031e+08	0.00475682
0.175	-2.01628e+08	0.0048878
0.1625	-1.96557e+08	0.0050204
0.15	-1.91828e+08	0.00515445
0.1375	-1.87437e+08	0.00528977
0.125	-1.8338e+08	0.0054262
0.1125	-1.79646e+08	0.00556362
0.1	-1.76221e+08	0.00570189
0.0875	-1.7309e+08	0.00584092
0.075	-1.70235e+08	0.0059806
0.0625	-1.67639e+08	0.00612085
0.05	-1.65283e+08	0.0062616
0.0375	-1.63149e+08	0.0064028
0.025	-1.6122e+08	0.00654437
0.0125	-1.59478e+08	0.00668627
-1.11022e-14	-1.57908e+08	0.00682846
-0.0125	-1.56494e+08	0.00697091
-0.025	-1.55222e+08	0.00711358
-0.0375	-1.54079e+08	0.00725645
-0.05	-1.53053e+08	0.00739948
-0.0625	-1.52132e+08	0.00754267
-0.075	-1.51307e+08	0.00768599
-0.0875	-1.50567e+08	0.00782943
-0.1	-1.49904e+08	0.00797296
-0.1125	-1.49311e+08	0.00811659
-0.125	-1.48781e+08	0.0082603
-0.1375	-1.48306e+08	0.00840408
-0.15	-1.47881e+08	0.00854792
-0.1625	-1.47502e+08	0.00869182
-0.175	-1.47162e+08	0.00883577
-0.1875	-1.46859e+08	0.00897975
-0.2	-1.46588e+08	0.00912378
-0.2125	-1.46346e+08	0.00926784
-0.225	-1.4613e+08	0.00941194
-0.2375	-1.45937e+08	0.00955606
-0.25	-1.45765e+08	0.0097002
-0.2625	-1.45611e+08	0.00984437
-0.275	-1.45474e+08	0.00998855
-0.2875	-1.45352e+08	0.0101327
-0.3	-1.45242e+08	0.010277
-0.3125	-1.45145e+08	0.0104212
-0.325	-1.45058e+08	0.0105654
-0.3375	-1.4498e+08	0.0107097
-0.35	-1.44911e+08	0.0108539
-0.3625	-1.44849e+08	0.0109982
-0.375	-1.44794e+08	0.0111425
-0.3875	-1.44744e+08	0.0112868
-0.4	-1.44701e+08	0.0114311
-0.4125	-1.44662e+08	0.0115754
-0.425	-1.44627e+08	0.0117197
-0.4375	-1.44596e+08	0.011864
-0.45	-1.44568e+08	0.0120083
-0.4625	-1.44543e+08	0.0121526
-0.475	-1.44521e+08	0.0122969
-0.4875	-1.44501e+08	0.0124412
-0.5	-1.44483e+08	0.0125855
-0.5125	-1.44468e+08	0.0127298
-0.5	-1.24275e+08	0.0127298
-0.4875	-1.04083e+08	0.0127298
-0.475	-8.38907e+07	0.0127298
-0.4625	-6.36984e+07	0.0127298
-0.45	-4.35061e+07	0.0127298
-0.4375	-2.33138e+07	0.0127298
-0.425	-3.12153e+06	0.0127298
-0.4125	1.70708e+07	0.0127298
-0.4	3.72631e+07	0.0127298
-0.3875	5.74554e+07	0.0127298
-0.375	7.76477e+07	0.0127298
-0.3625	9.784e+07	0.0127298
-0.35	1.18032e+08	0.0127298
-0.3375	1.38225e+08	0.0127298
-0.325	1.58417e+08	0.0127298
-0.3125	1.78609e+08	0.0127298
-0.3	1.98801e+08	0.0127298
-0.2875	2.18994e+08	0.0127298
-0.275	2.39186e+08	0.0127298
-0.2625	2.32636e+08	0.0128484
-0.25	2.26121e+08	0.0129703
-0.2375	2.19807e+08	0.0130947
-0.225	2.13744e+08	0.0132215
-0.2125	2.0797e+08	0.0133503
-0.2	2.02511e+08	0.013481
-0.1875	1.97385e+08	0.0136133
-0.175	1.92598e+08	0.0137471
-0.1625	1.88151e+08	0.0138822
-0.15	1.84038e+08	0.0140185
-0.1375	1.8025e+08	0.0141558
-0.125	1.76775e+08	0.0142939
-0.1125	1.73595e+08	0.0144328
-0.1	1.70696e+08	0.0145724
-0.0875	1.68058e+08	0.0147125
-0.075	1.65662e+08	0.0148532
-0.0625	1.63493e+08	0.0149943
-0.05	1.6153e+08	0.0151359
-0.0375	1.59758e+08	0.0152777
-0.025	1.5816e+08	0.0154199
-0.0125	1.56721e+08	0.0155623
-1.11022e-14	1.55427e+08	0.0157049
