Scalar VONMISES under Dynam for nodeset
189
   0.0000E+00
  0.0000E+00
  0.0000E+00
  0.0000E+00
  0.0000E+00
  0.0000E+00
  0.0000E+00
  0.0000E+00
  0.0000E+00
  0.0000E+00
  0.0000E+00
  0.0000E+00
  0.0000E+00
  0.0000E+00
  0.0000E+00
  0.0000E+00
  0.0000E+00
  0.0000E+00
  0.0000E+00
  0.0000E+00
  0.0000E+00
  0.0000E+00
  0.0000E+00
  0.0000E+00
  0.0000E+00
  0.0000E+00
  0.0000E+00
  0.0000E+00
  0.0000E+00
  0.0000E+00
  0.0000E+00
  0.0000E+00
  0.0000E+00
  0.0000E+00
  0.0000E+00
  0.0000E+00
  0.0000E+00
  0.0000E+00
  0.0000E+00
  0.0000E+00
  0.0000E+00
  0.0000E+00
  0.0000E+00
  0.0000E+00
  0.0000E+00
  0.0000E+00
  0.0000E+00
  0.0000E+00
  0.0000E+00
  0.0000E+00
  0.0000E+00
  0.0000E+00
  0.0000E+00
  0.0000E+00
  0.0000E+00
  0.0000E+00
  0.0000E+00
  0.0000E+00
  0.0000E+00
  0.0000E+00
  0.0000E+00
  0.0000E+00
  0.0000E+00
  0.0000E+00
  0.0000E+00
  0.0000E+00
  0.0000E+00
  0.0000E+00
  0.0000E+00
  0.0000E+00
  0.0000E+00
  0.0000E+00
  0.0000E+00
  0.0000E+00
  0.0000E+00
  0.0000E+00
  0.0000E+00
  0.0000E+00
  0.0000E+00
  0.0000E+00
  0.0000E+00
  0.0000E+00
  0.0000E+00
  0.0000E+00
  0.0000E+00
  0.0000E+00
  0.0000E+00
  0.0000E+00
  0.0000E+00
  0.0000E+00
  0.0000E+00
  0.0000E+00
  0.0000E+00
  0.0000E+00
  0.0000E+00
  0.0000E+00
  0.0000E+00
  0.0000E+00
  0.0000E+00
  0.0000E+00
  0.0000E+00
  0.0000E+00
  0.0000E+00
  0.0000E+00
  0.0000E+00
  0.0000E+00
  0.0000E+00
  0.0000E+00
  0.0000E+00
  0.0000E+00
  0.0000E+00
  0.0000E+00
  0.0000E+00
  0.0000E+00
  0.0000E+00
  0.0000E+00
  0.0000E+00
  0.0000E+00
  0.0000E+00
  0.0000E+00
  0.0000E+00
  0.0000E+00
  0.0000E+00
  0.0000E+00
  0.0000E+00
  0.0000E+00
  0.0000E+00
  0.0000E+00
  0.0000E+00
  0.0000E+00
  0.0000E+00
  0.0000E+00
  0.0000E+00
  0.0000E+00
  0.0000E+00
  0.0000E+00
  0.0000E+00
  0.0000E+00
  0.0000E+00
  0.0000E+00
  0.0000E+00
  0.0000E+00
  0.0000E+00
  0.0000E+00
  0.0000E+00
  0.0000E+00
  0.0000E+00
  0.0000E+00
  0.0000E+00
  0.0000E+00
  0.0000E+00
  0.0000E+00
  0.0000E+00
  0.0000E+00
  0.0000E+00
  0.0000E+00
  0.0000E+00
  0.0000E+00
  0.0000E+00
  0.0000E+00
  0.0000E+00
  0.0000E+00
  0.0000E+00
  0.0000E+00
  0.0000E+00
  0.0000E+00
  0.0000E+00
  0.0000E+00
  0.0000E+00
  0.0000E+00
  0.0000E+00
  0.0000E+00
  0.0000E+00
  0.0000E+00
  0.0000E+00
  0.0000E+00
  0.0000E+00
  0.0000E+00
  0.0000E+00
  0.0000E+00
  0.0000E+00
  0.0000E+00
  0.0000E+00
  0.0000E+00
  0.0000E+00
  0.0000E+00
  0.0000E+00
  0.0000E+00
  0.0000E+00
  0.0000E+00
   3.0000E+02
  1.9188E+02
  1.6659E+02
  1.9188E+02
  1.6659E+02
  1.4198E+02
  1.6659E+02
  1.9188E+02
  1.6659E+02
  1.9188E+02
  2.4580E+02
  2.3697E+02
  2.4580E+02
  2.3697E+02
  2.2545E+02
  2.3697E+02
  2.4580E+02
  2.3697E+02
  2.4580E+02
  2.2985E+02
  2.3948E+02
  2.2985E+02
  2.3948E+02
  2.4925E+02
  2.3948E+02
  2.2985E+02
  2.3948E+02
  2.2985E+02
  1.8642E+02
  2.0279E+02
  1.8642E+02
  2.0279E+02
  2.2600E+02
  2.0279E+02
  1.8642E+02
  2.0279E+02
  1.8642E+02
  1.4556E+02
  1.4169E+02
  1.4556E+02
  1.4169E+02
  1.3709E+02
  1.4169E+02
  1.4556E+02
  1.4169E+02
  1.4556E+02
  1.1959E+02
  1.0268E+02
  1.1959E+02
  1.0268E+02
  7.5160E+01
  1.0268E+02
  1.1959E+02
  1.0268E+02
  1.1959E+02
  1.3893E+02
  1.5174E+02
  1.3893E+02
  1.5174E+02
  1.6819E+02
  1.5174E+02
  1.3893E+02
  1.5174E+02
  1.3893E+02
  1.7716E+02
  1.9184E+02
  1.7716E+02
  1.9184E+02
  2.0518E+02
  1.9184E+02
  1.7716E+02
  1.9184E+02
  1.7716E+02
  1.2789E+02
  1.2528E+02
  1.2789E+02
  1.2528E+02
  1.2761E+02
  1.2528E+02
  1.2789E+02
  1.2528E+02
  1.2789E+02
  4.7220E+01
  3.6271E+01
  4.7220E+01
  3.6271E+01
  5.0011E+01
  3.6271E+01
  4.7220E+01
  3.6271E+01
  4.7220E+01
  3.8145E+01
  3.3840E+01
  3.8145E+01
  3.3840E+01
  4.2321E+01
  3.3840E+01
  3.8145E+01
  3.3840E+01
  3.8145E+01
  1.5741E+01
  1.8972E+01
  1.5741E+01
  1.8972E+01
  5.1498E+01
  1.8972E+01
  1.5741E+01
  1.8972E+01
  1.5741E+01
  4.5305E+01
  4.6915E+01
  4.5305E+01
  4.6915E+01
  5.9041E+01
  4.6915E+01
  4.5305E+01
  4.6915E+01
  4.5305E+01
  8.0268E+01
  8.5097E+01
  8.0268E+01
  8.5097E+01
  6.2293E+01
  8.5097E+01
  8.0268E+01
  8.5097E+01
  8.0268E+01
  1.2903E+02
  1.2567E+02
  1.2903E+02
  1.2567E+02
  1.2064E+02
  1.2567E+02
  1.2903E+02
  1.2567E+02
  1.2903E+02
  2.0154E+02
  1.9009E+02
  2.0154E+02
  1.9009E+02
  2.0188E+02
  1.9009E+02
  2.0154E+02
  1.9009E+02
  2.0154E+02
  2.5279E+02
  2.5361E+02
  2.5279E+02
  2.5361E+02
  2.4859E+02
  2.5361E+02
  2.5279E+02
  2.5361E+02
  2.5279E+02
  2.9881E+02
  2.9532E+02
  2.9881E+02
  2.9532E+02
  2.8219E+02
  2.9532E+02
  2.9881E+02
  2.9532E+02
  2.9881E+02
  3.6353E+02
  3.5336E+02
  3.6353E+02
  3.5336E+02
  3.4784E+02
  3.5336E+02
  3.6353E+02
  3.5336E+02
  3.6353E+02
  3.9032E+02
  3.8726E+02
  3.9032E+02
  3.8726E+02
  3.8794E+02
  3.8726E+02
  3.9032E+02
  3.8726E+02
  3.9032E+02
  3.9654E+02
  3.9448E+02
  3.9654E+02
  3.9448E+02
  3.9301E+02
  3.9448E+02
  3.9654E+02
  3.9448E+02
  3.9654E+02
