Scalar VONMISES_STRAIN under Dynam for nodeset
189
   0.0000E+00
  0.0000E+00
  0.0000E+00
  0.0000E+00
  0.0000E+00
  0.0000E+00
  0.0000E+00
  0.0000E+00
  0.0000E+00
  0.0000E+00
  0.0000E+00
  0.0000E+00
  0.0000E+00
  0.0000E+00
  0.0000E+00
  0.0000E+00
  0.0000E+00
  0.0000E+00
  0.0000E+00
  0.0000E+00
  0.0000E+00
  0.0000E+00
  0.0000E+00
  0.0000E+00
  0.0000E+00
  0.0000E+00
  0.0000E+00
  0.0000E+00
  0.0000E+00
  0.0000E+00
  0.0000E+00
  0.0000E+00
  0.0000E+00
  0.0000E+00
  0.0000E+00
  0.0000E+00
  0.0000E+00
  0.0000E+00
  0.0000E+00
  0.0000E+00
  0.0000E+00
  0.0000E+00
  0.0000E+00
  0.0000E+00
  0.0000E+00
  0.0000E+00
  0.0000E+00
  0.0000E+00
  0.0000E+00
  0.0000E+00
  0.0000E+00
  0.0000E+00
  0.0000E+00
  0.0000E+00
  0.0000E+00
  0.0000E+00
  0.0000E+00
  0.0000E+00
  0.0000E+00
  0.0000E+00
  0.0000E+00
  0.0000E+00
  0.0000E+00
  0.0000E+00
  0.0000E+00
  0.0000E+00
  0.0000E+00
  0.0000E+00
  0.0000E+00
  0.0000E+00
  0.0000E+00
  0.0000E+00
  0.0000E+00
  0.0000E+00
  0.0000E+00
  0.0000E+00
  0.0000E+00
  0.0000E+00
  0.0000E+00
  0.0000E+00
  0.0000E+00
  0.0000E+00
  0.0000E+00
  0.0000E+00
  0.0000E+00
  0.0000E+00
  0.0000E+00
  0.0000E+00
  0.0000E+00
  0.0000E+00
  0.0000E+00
  0.0000E+00
  0.0000E+00
  0.0000E+00
  0.0000E+00
  0.0000E+00
  0.0000E+00
  0.0000E+00
  0.0000E+00
  0.0000E+00
  0.0000E+00
  0.0000E+00
  0.0000E+00
  0.0000E+00
  0.0000E+00
  0.0000E+00
  0.0000E+00
  0.0000E+00
  0.0000E+00
  0.0000E+00
  0.0000E+00
  0.0000E+00
  0.0000E+00
  0.0000E+00
  0.0000E+00
  0.0000E+00
  0.0000E+00
  0.0000E+00
  0.0000E+00
  0.0000E+00
  0.0000E+00
  0.0000E+00
  0.0000E+00
  0.0000E+00
  0.0000E+00
  0.0000E+00
  0.0000E+00
  0.0000E+00
  0.0000E+00
  0.0000E+00
  0.0000E+00
  0.0000E+00
  0.0000E+00
  0.0000E+00
  0.0000E+00
  0.0000E+00
  0.0000E+00
  0.0000E+00
  0.0000E+00
  0.0000E+00
  0.0000E+00
  0.0000E+00
  0.0000E+00
  0.0000E+00
  0.0000E+00
  0.0000E+00
  0.0000E+00
  0.0000E+00
  0.0000E+00
  0.0000E+00
  0.0000E+00
  0.0000E+00
  0.0000E+00
  0.0000E+00
  0.0000E+00
  0.0000E+00
  0.0000E+00
  0.0000E+00
  0.0000E+00
  0.0000E+00
  0.0000E+00
  0.0000E+00
  0.0000E+00
  0.0000E+00
  0.0000E+00
  0.0000E+00
  0.0000E+00
  0.0000E+00
  0.0000E+00
  0.0000E+00
  0.0000E+00
  0.0000E+00
  0.0000E+00
  0.0000E+00
  0.0000E+00
  0.0000E+00
  0.0000E+00
  0.0000E+00
  0.0000E+00
  0.0000E+00
  0.0000E+00
  0.0000E+00
  0.0000E+00
  0.0000E+00
  0.0000E+00
  0.0000E+00
  0.0000E+00
  0.0000E+00
  0.0000E+00
  0.0000E+00
   3.0000E+02
  1.2168E-01
  1.0565E-01
  1.2168E-01
  1.0565E-01
  9.0034E-02
  1.0565E-01
  1.2168E-01
  1.0565E-01
  1.2168E-01
  1.5587E-01
  1.5027E-01
  1.5587E-01
  1.5027E-01
  1.4297E-01
  1.5027E-01
  1.5587E-01
  1.5027E-01
  1.5587E-01
  1.4576E-01
  1.5186E-01
  1.4576E-01
  1.5186E-01
  1.5806E-01
  1.5186E-01
  1.4576E-01
  1.5186E-01
  1.4576E-01
  1.1822E-01
  1.2860E-01
  1.1822E-01
  1.2860E-01
  1.4332E-01
  1.2860E-01
  1.1822E-01
  1.2860E-01
  1.1822E-01
  9.2308E-02
  8.9850E-02
  9.2308E-02
  8.9850E-02
  8.6935E-02
  8.9850E-02
  9.2308E-02
  8.9850E-02
  9.2308E-02
  7.5839E-02
  6.5113E-02
  7.5839E-02
  6.5113E-02
  4.7663E-02
  6.5113E-02
  7.5839E-02
  6.5113E-02
  7.5839E-02
  8.8102E-02
  9.6223E-02
  8.8102E-02
  9.6223E-02
  1.0666E-01
  9.6223E-02
  8.8102E-02
  9.6223E-02
  8.8102E-02
  1.1234E-01
  1.2165E-01
  1.1234E-01
  1.2165E-01
  1.3011E-01
  1.2165E-01
  1.1234E-01
  1.2165E-01
  1.1234E-01
  8.1103E-02
  7.9445E-02
  8.1103E-02
  7.9445E-02
  8.0925E-02
  7.9445E-02
  8.1103E-02
  7.9445E-02
  8.1103E-02
  2.9945E-02
  2.3001E-02
  2.9945E-02
  2.3001E-02
  3.1714E-02
  2.3001E-02
  2.9945E-02
  2.3001E-02
  2.9945E-02
  2.4190E-02
  2.1460E-02
  2.4190E-02
  2.1460E-02
  2.6838E-02
  2.1460E-02
  2.4190E-02
  2.1460E-02
  2.4190E-02
  9.9821E-03
  1.2031E-02
  9.9821E-03
  1.2031E-02
  3.2657E-02
  1.2031E-02
  9.9821E-03
  1.2031E-02
  9.9821E-03
  2.8730E-02
  2.9751E-02
  2.8730E-02
  2.9751E-02
  3.7441E-02
  2.9751E-02
  2.8730E-02
  2.9751E-02
  2.8730E-02
  5.0901E-02
  5.3964E-02
  5.0901E-02
  5.3964E-02
  3.9503E-02
  5.3964E-02
  5.0901E-02
  5.3964E-02
  5.0901E-02
  8.1823E-02
  7.9693E-02
  8.1823E-02
  7.9693E-02
  7.6506E-02
  7.9693E-02
  8.1823E-02
  7.9693E-02
  8.1823E-02
  1.2780E-01
  1.2054E-01
  1.2780E-01
  1.2054E-01
  1.2802E-01
  1.2054E-01
  1.2780E-01
  1.2054E-01
  1.2780E-01
  1.6031E-01
  1.6082E-01
  1.6031E-01
  1.6082E-01
  1.5764E-01
  1.6082E-01
  1.6031E-01
  1.6082E-01
  1.6031E-01
  1.8949E-01
  1.8728E-01
  1.8949E-01
  1.8728E-01
  1.7895E-01
  1.8728E-01
  1.8949E-01
  1.8728E-01
  1.8949E-01
  2.3053E-01
  2.2408E-01
  2.3053E-01
  2.2408E-01
  2.2058E-01
  2.2408E-01
  2.3053E-01
  2.2408E-01
  2.3053E-01
  2.4752E-01
  2.4558E-01
  2.4752E-01
  2.4558E-01
  2.4601E-01
  2.4558E-01
  2.4752E-01
  2.4558E-01
  2.4752E-01
  2.5146E-01
  2.5016E-01
  2.5146E-01
  2.5016E-01
  2.4923E-01
  2.5016E-01
  2.5146E-01
  2.5016E-01
  2.5146E-01
