Scalar VONMISES under NLDynamic for nodeset
189
   0.0000E+00
  0.0000E+00
  0.0000E+00
  0.0000E+00
  0.0000E+00
  0.0000E+00
  0.0000E+00
  0.0000E+00
  0.0000E+00
  0.0000E+00
  0.0000E+00
  0.0000E+00
  0.0000E+00
  0.0000E+00
  0.0000E+00
  0.0000E+00
  0.0000E+00
  0.0000E+00
  0.0000E+00
  0.0000E+00
  0.0000E+00
  0.0000E+00
  0.0000E+00
  0.0000E+00
  0.0000E+00
  0.0000E+00
  0.0000E+00
  0.0000E+00
  0.0000E+00
  0.0000E+00
  0.0000E+00
  0.0000E+00
  0.0000E+00
  0.0000E+00
  0.0000E+00
  0.0000E+00
  0.0000E+00
  0.0000E+00
  0.0000E+00
  0.0000E+00
  0.0000E+00
  0.0000E+00
  0.0000E+00
  0.0000E+00
  0.0000E+00
  0.0000E+00
  0.0000E+00
  0.0000E+00
  0.0000E+00
  0.0000E+00
  0.0000E+00
  0.0000E+00
  0.0000E+00
  0.0000E+00
  0.0000E+00
  0.0000E+00
  0.0000E+00
  0.0000E+00
  0.0000E+00
  0.0000E+00
  0.0000E+00
  0.0000E+00
  0.0000E+00
  0.0000E+00
  0.0000E+00
  0.0000E+00
  0.0000E+00
  0.0000E+00
  0.0000E+00
  0.0000E+00
  0.0000E+00
  0.0000E+00
  0.0000E+00
  0.0000E+00
  0.0000E+00
  0.0000E+00
  0.0000E+00
  0.0000E+00
  0.0000E+00
  0.0000E+00
  0.0000E+00
  0.0000E+00
  0.0000E+00
  0.0000E+00
  0.0000E+00
  0.0000E+00
  0.0000E+00
  0.0000E+00
  0.0000E+00
  0.0000E+00
  0.0000E+00
  0.0000E+00
  0.0000E+00
  0.0000E+00
  0.0000E+00
  0.0000E+00
  0.0000E+00
  0.0000E+00
  0.0000E+00
  0.0000E+00
  0.0000E+00
  0.0000E+00
  0.0000E+00
  0.0000E+00
  0.0000E+00
  0.0000E+00
  0.0000E+00
  0.0000E+00
  0.0000E+00
  0.0000E+00
  0.0000E+00
  0.0000E+00
  0.0000E+00
  0.0000E+00
  0.0000E+00
  0.0000E+00
  0.0000E+00
  0.0000E+00
  0.0000E+00
  0.0000E+00
  0.0000E+00
  0.0000E+00
  0.0000E+00
  0.0000E+00
  0.0000E+00
  0.0000E+00
  0.0000E+00
  0.0000E+00
  0.0000E+00
  0.0000E+00
  0.0000E+00
  0.0000E+00
  0.0000E+00
  0.0000E+00
  0.0000E+00
  0.0000E+00
  0.0000E+00
  0.0000E+00
  0.0000E+00
  0.0000E+00
  0.0000E+00
  0.0000E+00
  0.0000E+00
  0.0000E+00
  0.0000E+00
  0.0000E+00
  0.0000E+00
  0.0000E+00
  0.0000E+00
  0.0000E+00
  0.0000E+00
  0.0000E+00
  0.0000E+00
  0.0000E+00
  0.0000E+00
  0.0000E+00
  0.0000E+00
  0.0000E+00
  0.0000E+00
  0.0000E+00
  0.0000E+00
  0.0000E+00
  0.0000E+00
  0.0000E+00
  0.0000E+00
  0.0000E+00
  0.0000E+00
  0.0000E+00
  0.0000E+00
  0.0000E+00
  0.0000E+00
  0.0000E+00
  0.0000E+00
  0.0000E+00
  0.0000E+00
  0.0000E+00
  0.0000E+00
  0.0000E+00
  0.0000E+00
  0.0000E+00
  0.0000E+00
  0.0000E+00
  0.0000E+00
  0.0000E+00
  0.0000E+00
  0.0000E+00
  0.0000E+00
  0.0000E+00
  0.0000E+00
  0.0000E+00
   3.0000E+01
  5.2821E+02
  4.2832E+02
  5.2821E+02
  4.2832E+02
  2.9003E+02
  4.2832E+02
  5.2821E+02
  4.2832E+02
  5.2821E+02
  7.5232E+02
  7.5543E+02
  7.5232E+02
  7.5543E+02
  7.4061E+02
  7.5543E+02
  7.5232E+02
  7.5543E+02
  7.5232E+02
  7.6005E+02
  7.9378E+02
  7.6005E+02
  7.9378E+02
  8.2242E+02
  7.9378E+02
  7.6005E+02
  7.9378E+02
  7.6005E+02
  6.3220E+02
  6.1519E+02
  6.3220E+02
  6.1519E+02
  5.8198E+02
  6.1519E+02
  6.3220E+02
  6.1519E+02
  6.3220E+02
  5.9283E+02
  5.7753E+02
  5.9283E+02
  5.7753E+02
  5.7602E+02
  5.7753E+02
  5.9283E+02
  5.7753E+02
  5.9283E+02
  5.3992E+02
  5.4482E+02
  5.3992E+02
  5.4482E+02
  5.3656E+02
  5.4482E+02
  5.3992E+02
  5.4482E+02
  5.3992E+02
  4.8903E+02
  4.9069E+02
  4.8903E+02
  4.9069E+02
  4.8154E+02
  4.9069E+02
  4.8903E+02
  4.9069E+02
  4.8903E+02
  4.5094E+02
  4.3486E+02
  4.5094E+02
  4.3486E+02
  4.6312E+02
  4.3486E+02
  4.5094E+02
  4.3486E+02
  4.5094E+02
  3.9458E+02
  4.2163E+02
  3.9458E+02
  4.2163E+02
  4.1524E+02
  4.2163E+02
  3.9458E+02
  4.2163E+02
  3.9458E+02
  3.7539E+02
  3.7588E+02
  3.7539E+02
  3.7588E+02
  3.7035E+02
  3.7588E+02
  3.7539E+02
  3.7588E+02
  3.7539E+02
  3.8379E+02
  3.4922E+02
  3.8379E+02
  3.4922E+02
  3.3391E+02
  3.4922E+02
  3.8379E+02
  3.4922E+02
  3.8379E+02
  3.6200E+02
  3.5991E+02
  3.6200E+02
  3.5991E+02
  3.4200E+02
  3.5991E+02
  3.6200E+02
  3.5991E+02
  3.6200E+02
  3.7124E+02
  3.7675E+02
  3.7124E+02
  3.7675E+02
  3.9383E+02
  3.7675E+02
  3.7124E+02
  3.7675E+02
  3.7124E+02
  3.9062E+02
  3.9073E+02
  3.9062E+02
  3.9073E+02
  3.9407E+02
  3.9073E+02
  3.9062E+02
  3.9073E+02
  3.9062E+02
  3.5565E+02
  3.6746E+02
  3.5565E+02
  3.6746E+02
  3.6903E+02
  3.6746E+02
  3.5565E+02
  3.6746E+02
  3.5565E+02
  3.8569E+02
  3.8291E+02
  3.8569E+02
  3.8291E+02
  3.8784E+02
  3.8291E+02
  3.8569E+02
  3.8291E+02
  3.8569E+02
  3.8088E+02
  3.8347E+02
  3.8088E+02
  3.8347E+02
  3.8287E+02
  3.8347E+02
  3.8088E+02
  3.8347E+02
  3.8088E+02
  3.7342E+02
  3.7384E+02
  3.7342E+02
  3.7384E+02
  3.7208E+02
  3.7384E+02
  3.7342E+02
  3.7384E+02
  3.7342E+02
  3.9182E+02
  3.8501E+02
  3.9182E+02
  3.8501E+02
  3.8394E+02
  3.8501E+02
  3.9182E+02
  3.8501E+02
  3.9182E+02
  3.6495E+02
  3.7148E+02
  3.6495E+02
  3.7148E+02
  3.7707E+02
  3.7148E+02
  3.6495E+02
  3.7148E+02
  3.6495E+02
  3.6404E+02
  3.7551E+02
  3.6404E+02
  3.7551E+02
  3.8129E+02
  3.7551E+02
  3.6404E+02
  3.7551E+02
  3.6404E+02
