Scalar VONMISES_STRAIN under Static for nodeset
1872
   0.0000E+00
  1.2000E-03
  1.2000E-03
  1.2000E-03
  1.2000E-03
  1.2000E-03
  1.2000E-03
  1.2000E-03
  1.2000E-03
  1.2000E-03
  1.2000E-03
  1.2000E-03
  1.2000E-03
  1.2000E-03
  1.2000E-03
  1.2000E-03
  1.2000E-03
  1.2000E-03
  1.2000E-03
  1.2000E-03
  1.2000E-03
  1.2000E-03
  1.2000E-03
  1.2000E-03
  1.2000E-03
  1.2000E-03
  1.2000E-03
  1.2000E-03
  1.2000E-03
  1.2000E-03
  1.2000E-03
  1.2000E-03
  1.2000E-03
  1.2000E-03
  1.2000E-03
  1.2000E-03
  1.2000E-03
  1.2000E-03
  1.2000E-03
  1.2000E-03
  1.2000E-03
  1.2000E-03
  1.2000E-03
  1.2000E-03
  1.2000E-03
  1.2000E-03
  1.2000E-03
  1.2000E-03
  1.2000E-03
  1.2000E-03
  1.2000E-03
  1.2000E-03
  1.2000E-03
  1.2000E-03
  1.2000E-03
  1.2000E-03
  1.2000E-03
  1.2000E-03
  1.2000E-03
  1.2000E-03
  1.2000E-03
  1.2000E-03
  1.2000E-03
  1.2000E-03
  1.2000E-03
  1.2000E-03
  1.2000E-03
  1.2000E-03
  1.2000E-03
  1.2000E-03
  1.2000E-03
  1.2000E-03
  1.2000E-03
  1.2000E-03
  1.2000E-03
  1.2000E-03
  1.2000E-03
  1.2000E-03
  1.2000E-03
  1.2000E-03
  1.2000E-03
  1.2000E-03
  1.2000E-03
  1.2000E-03
  1.2000E-03
  1.2000E-03
  1.2000E-03
  1.2000E-03
  1.2000E-03
  1.2000E-03
  1.2000E-03
  1.2000E-03
  1.2000E-03
  1.2000E-03
  1.2000E-03
  1.2000E-03
  1.2000E-03
  1.2000E-03
  1.2000E-03
  1.2000E-03
  1.2000E-03
  1.2000E-03
  1.2000E-03
  1.2000E-03
  1.2000E-03
  1.2000E-03
  1.2000E-03
  1.2000E-03
  1.2000E-03
  1.2000E-03
  1.2000E-03
  1.2000E-03
  1.2000E-03
  1.2000E-03
  1.2000E-03
  1.2000E-03
  1.2000E-03
  1.2000E-03
  1.2000E-03
  1.2000E-03
  1.2000E-03
  1.2000E-03
  1.2000E-03
  1.2000E-03
  1.2000E-03
  1.2000E-03
  1.2000E-03
  1.2000E-03
  1.2000E-03
  1.2000E-03
  1.2000E-03
  1.2000E-03
  1.2000E-03
  1.2000E-03
  1.2000E-03
  1.2000E-03
  1.2000E-03
  1.2000E-03
  1.2000E-03
  1.2000E-03
  1.2000E-03
  1.2000E-03
  1.2000E-03
  1.2000E-03
  1.2000E-03
  1.2000E-03
  1.2000E-03
  1.2000E-03
  1.2000E-03
  1.2000E-03
  1.2000E-03
  1.2000E-03
  1.2000E-03
  1.2000E-03
  1.2000E-03
  1.2000E-03
  1.2000E-03
  1.2000E-03
  1.2000E-03
  1.2000E-03
  1.2000E-03
  1.2000E-03
  1.2000E-03
  1.2000E-03
  1.2000E-03
  1.2000E-03
  1.2000E-03
  1.2000E-03
  1.2000E-03
  1.2000E-03
  1.2000E-03
  1.2000E-03
  1.2000E-03
  1.2000E-03
  1.2000E-03
  1.2000E-03
  1.2000E-03
  1.2000E-03
  1.2000E-03
  1.2000E-03
  1.2000E-03
  1.2000E-03
  1.2000E-03
  1.2000E-03
  1.2000E-03
  1.2000E-03
  1.2000E-03
  1.2000E-03
  1.2000E-03
  1.2000E-03
  1.2000E-03
  1.2000E-03
  1.2000E-03
  1.2000E-03
  1.2000E-03
  1.2000E-03
  1.2000E-03
  1.2000E-03
  1.2000E-03
  1.2000E-03
  1.2000E-03
  1.2000E-03
  1.2000E-03
  1.2000E-03
  1.2000E-03
  1.2000E-03
  1.2000E-03
  1.2000E-03
  1.2000E-03
  1.2000E-03
  1.2000E-03
  1.2000E-03
  1.2000E-03
  1.2000E-03
  1.2000E-03
  1.2000E-03
  1.2000E-03
  1.2000E-03
  1.2000E-03
  1.2000E-03
  1.2000E-03
  1.2000E-03
  1.2000E-03
  1.2000E-03
  1.2000E-03
  1.2000E-03
  1.2000E-03
  1.2000E-03
  1.2000E-03
  1.2000E-03
  1.2000E-03
  1.2000E-03
  1.2000E-03
  1.2000E-03
  1.2000E-03
  1.2000E-03
  1.2000E-03
  1.2000E-03
  1.2000E-03
  1.2000E-03
  1.2000E-03
  1.2000E-03
  1.2000E-03
  1.2000E-03
  1.2000E-03
  1.2000E-03
  1.2000E-03
  1.2000E-03
  1.2000E-03
  1.2000E-03
  1.2000E-03
  1.2000E-03
  1.2000E-03
  1.2000E-03
  1.2000E-03
  1.2000E-03
  1.2000E-03
  1.2000E-03
  1.2000E-03
  1.2000E-03
  1.2000E-03
  1.2000E-03
  1.2000E-03
  1.2000E-03
  1.2000E-03
  1.2000E-03
  1.2000E-03
  1.2000E-03
  1.2000E-03
  1.2000E-03
  1.2000E-03
  1.2000E-03
  1.2000E-03
  1.2000E-03
  1.2000E-03
  1.2000E-03
  1.2000E-03
  1.2000E-03
  1.2000E-03
  1.2000E-03
  1.2000E-03
  1.2000E-03
  1.2000E-03
  1.2000E-03
  1.2000E-03
  1.2000E-03
  1.2000E-03
  1.2000E-03
  1.2000E-03
  1.2000E-03
  1.2000E-03
  1.2000E-03
  1.2000E-03
  1.2000E-03
  1.2000E-03
  1.2000E-03
  1.2000E-03
  1.2000E-03
  1.2000E-03
  1.2000E-03
  1.2000E-03
  1.2000E-03
  1.2000E-03
  1.2000E-03
  1.2000E-03
  1.2000E-03
  1.2000E-03
  1.2000E-03
  1.2000E-03
  1.2000E-03
  1.2000E-03
  1.2000E-03
  1.2000E-03
  1.2000E-03
  1.2000E-03
  1.2000E-03
  1.2000E-03
  1.2000E-03
  1.2000E-03
  1.2000E-03
  1.2000E-03
  1.2000E-03
  1.2000E-03
  1.2000E-03
  1.2000E-03
  1.2000E-03
  1.2000E-03
  1.2000E-03
  1.2000E-03
  1.2000E-03
  1.2000E-03
  1.2000E-03
  1.2000E-03
  1.2000E-03
  1.2000E-03
  1.2000E-03
  1.2000E-03
  1.2000E-03
  1.2000E-03
  1.2000E-03
  1.2000E-03
  1.2000E-03
  1.2000E-03
  1.2000E-03
  1.2000E-03
  1.2000E-03
  1.2000E-03
  1.2000E-03
  1.2000E-03
  1.2000E-03
  1.2000E-03
  1.2000E-03
  1.2000E-03
  1.2000E-03
  1.2000E-03
  1.2000E-03
  1.2000E-03
  1.2000E-03
  1.2000E-03
  1.2000E-03
  1.2000E-03
  1.2000E-03
  1.2000E-03
  1.2000E-03
  1.2000E-03
  1.2000E-03
  1.2000E-03
  1.2000E-03
  1.2000E-03
  1.2000E-03
  1.2000E-03
  1.2000E-03
  1.2000E-03
  1.2000E-03
  1.2000E-03
  1.2000E-03
  1.2000E-03
  1.2000E-03
  1.2000E-03
  1.2000E-03
  1.2000E-03
  1.2000E-03
  1.2000E-03
  1.2000E-03
  1.2000E-03
  1.2000E-03
  1.2000E-03
  1.2000E-03
  1.2000E-03
  1.2000E-03
  1.2000E-03
  1.2000E-03
  1.2000E-03
  1.2000E-03
  1.2000E-03
  1.2000E-03
  1.2000E-03
  1.2000E-03
  1.2000E-03
  1.2000E-03
  1.2000E-03
  1.2000E-03
  1.2000E-03
  1.2000E-03
  1.2000E-03
  1.2000E-03
  1.2000E-03
  1.2000E-03
  1.2000E-03
  1.2000E-03
  1.2000E-03
  1.2000E-03
  1.2000E-03
  1.2000E-03
  1.2000E-03
  1.2000E-03
  1.2000E-03
  1.2000E-03
  1.2000E-03
  1.2000E-03
  1.2000E-03
  1.2000E-03
  1.2000E-03
  1.2000E-03
  1.2000E-03
  1.2000E-03
  1.2000E-03
  1.2000E-03
  1.2000E-03
  1.2000E-03
  1.2000E-03
  1.2000E-03
  1.2000E-03
  1.2000E-03
  1.2000E-03
  1.2000E-03
  1.2000E-03
  1.2000E-03
  1.2000E-03
  1.2000E-03
  1.2000E-03
  1.2000E-03
  1.2000E-03
  1.2000E-03
  1.2000E-03
  1.2000E-03
  1.2000E-03
  1.2000E-03
  1.2000E-03
  1.2000E-03
  1.2000E-03
  1.2000E-03
  1.2000E-03
  1.2000E-03
  1.2000E-03
  1.2000E-03
  1.2000E-03
  1.2000E-03
  1.2000E-03
  1.2000E-03
  1.2000E-03
  1.2000E-03
  1.2000E-03
  1.2000E-03
  1.2000E-03
  1.2000E-03
  1.2000E-03
  1.2000E-03
  1.2000E-03
  1.2000E-03
  1.2000E-03
  1.2000E-03
  1.2000E-03
  1.2000E-03
  1.2000E-03
  1.2000E-03
  1.2000E-03
  1.2000E-03
  1.2000E-03
  1.2000E-03
  1.2000E-03
  1.2000E-03
  1.2000E-03
  1.2000E-03
  1.2000E-03
  1.2000E-03
  1.2000E-03
  1.2000E-03
  1.2000E-03
  1.2000E-03
  1.2000E-03
  1.2000E-03
  1.2000E-03
  1.2000E-03
  1.2000E-03
  1.2000E-03
  1.2000E-03
  1.2000E-03
  1.2000E-03
  1.2000E-03
  1.2000E-03
  1.2000E-03
  1.2000E-03
  1.2000E-03
  1.2000E-03
  1.2000E-03
  1.2000E-03
  1.2000E-03
  1.2000E-03
  1.2000E-03
  1.2000E-03
  1.2000E-03
  1.2000E-03
  1.2000E-03
  1.2000E-03
  1.2000E-03
  1.2000E-03
  1.2000E-03
  1.2000E-03
  1.2000E-03
  1.2000E-03
  1.2000E-03
  1.2000E-03
  1.2000E-03
  1.2000E-03
  1.2000E-03
  1.2000E-03
  1.2000E-03
  1.2000E-03
  1.2000E-03
  1.2000E-03
  1.2000E-03
  1.2000E-03
  1.2000E-03
  1.2000E-03
  1.2000E-03
  1.2000E-03
  1.2000E-03
  1.2000E-03
  1.2000E-03
  1.2000E-03
  1.2000E-03
  1.2000E-03
  1.2000E-03
  1.2000E-03
  1.2000E-03
  1.2000E-03
  1.2000E-03
  1.2000E-03
  1.2000E-03
  1.2000E-03
  1.2000E-03
  1.2000E-03
  1.2000E-03
  1.2000E-03
  1.2000E-03
  1.2000E-03
  1.2000E-03
  1.2000E-03
  1.2000E-03
  1.2000E-03
  1.2000E-03
  1.2000E-03
  1.2000E-03
  1.2000E-03
  1.2000E-03
  1.2000E-03
  1.2000E-03
  1.2000E-03
  1.2000E-03
  1.2000E-03
  1.2000E-03
  1.2000E-03
  1.2000E-03
  1.2000E-03
  1.2000E-03
  1.2000E-03
  1.2000E-03
  1.2000E-03
  1.2000E-03
  1.2000E-03
  1.2000E-03
  1.2000E-03
  1.2000E-03
  1.2000E-03
  1.2000E-03
  1.2000E-03
  1.2000E-03
  1.2000E-03
  1.2000E-03
  1.2000E-03
  1.2000E-03
  1.2000E-03
  1.2000E-03
  1.2000E-03
  1.2000E-03
  1.2000E-03
  1.2000E-03
  1.2000E-03
  1.2000E-03
  1.2000E-03
  1.2000E-03
  1.2000E-03
  1.2000E-03
  1.2000E-03
  1.2000E-03
  1.2000E-03
  1.2000E-03
  1.2000E-03
  1.2000E-03
  1.2000E-03
  1.2000E-03
  1.2000E-03
  1.2000E-03
  1.2000E-03
  1.2000E-03
  1.2000E-03
  1.2000E-03
  1.2000E-03
  1.2000E-03
  1.2000E-03
  1.2000E-03
  1.2000E-03
  1.2000E-03
  1.2000E-03
  1.2000E-03
  1.2000E-03
  1.2000E-03
  1.2000E-03
  1.2000E-03
  1.2000E-03
  1.2000E-03
  1.2000E-03
  1.2000E-03
  1.2000E-03
  1.2000E-03
  1.2000E-03
  1.2000E-03
  1.2000E-03
  1.2000E-03
  1.2000E-03
  1.2000E-03
  1.2000E-03
  1.2000E-03
  1.2000E-03
  1.2000E-03
  1.2000E-03
  1.2000E-03
  1.2000E-03
  1.2000E-03
  1.2000E-03
  1.2000E-03
  1.2000E-03
  1.2000E-03
  1.2000E-03
  1.2000E-03
  1.2000E-03
  1.2000E-03
  1.2000E-03
  1.2000E-03
  1.2000E-03
  1.2000E-03
  1.2000E-03
  1.2000E-03
  1.2000E-03
  1.2000E-03
  1.2000E-03
  1.2000E-03
  1.2000E-03
  1.2000E-03
  1.2000E-03
  1.2000E-03
  1.2000E-03
  1.2000E-03
  1.2000E-03
  1.2000E-03
  1.2000E-03
  1.2000E-03
  1.2000E-03
  1.2000E-03
  1.2000E-03
  1.2000E-03
  1.2000E-03
  1.2000E-03
  1.2000E-03
  1.2000E-03
  1.2000E-03
  1.2000E-03
  1.2000E-03
  1.2000E-03
  1.2000E-03
  1.2000E-03
  1.2000E-03
  1.2000E-03
  1.2000E-03
  1.2000E-03
  1.2000E-03
  1.2000E-03
  1.2000E-03
  1.2000E-03
  1.2000E-03
  1.2000E-03
  1.2000E-03
  1.2000E-03
  1.2000E-03
  1.2000E-03
  1.2000E-03
  1.2000E-03
  1.2000E-03
  1.2000E-03
  1.2000E-03
  1.2000E-03
  1.2000E-03
  1.2000E-03
  1.2000E-03
  1.2000E-03
  1.2000E-03
  1.2000E-03
  1.2000E-03
  1.2000E-03
  1.2000E-03
  1.2000E-03
  1.2000E-03
  1.2000E-03
  1.2000E-03
  1.2000E-03
  1.2000E-03
  1.2000E-03
  1.2000E-03
  1.2000E-03
  1.2000E-03
  1.2000E-03
  1.2000E-03
  1.2000E-03
  1.2000E-03
  1.2000E-03
  1.2000E-03
  1.2000E-03
  1.2000E-03
  1.2000E-03
  1.2000E-03
  1.2000E-03
  1.2000E-03
  1.2000E-03
  1.2000E-03
  1.2000E-03
  1.2000E-03
  1.2000E-03
  1.2000E-03
  1.2000E-03
  1.2000E-03
  1.2000E-03
  1.2000E-03
  1.2000E-03
  1.2000E-03
  1.2000E-03
  1.2000E-03
  1.2000E-03
  1.2000E-03
  1.2000E-03
  1.2000E-03
  1.2000E-03
  1.2000E-03
  1.2000E-03
  1.2000E-03
  1.2000E-03
  1.2000E-03
  1.2000E-03
  1.2000E-03
  1.2000E-03
  1.2000E-03
  1.2000E-03
  1.2000E-03
  1.2000E-03
  1.2000E-03
  1.2000E-03
  1.2000E-03
  1.2000E-03
  1.2000E-03
  1.2000E-03
  1.2000E-03
  1.2000E-03
  1.2000E-03
  1.2000E-03
  1.2000E-03
  1.2000E-03
  1.2000E-03
  1.2000E-03
  1.2000E-03
  1.2000E-03
  1.2000E-03
  1.2000E-03
  1.2000E-03
  1.2000E-03
  1.2000E-03
  1.2000E-03
  1.2000E-03
  1.2000E-03
  1.2000E-03
  1.2000E-03
  1.2000E-03
  1.2000E-03
  1.2000E-03
  1.2000E-03
  1.2000E-03
  1.2000E-03
  1.2000E-03
  1.2000E-03
  1.2000E-03
  1.2000E-03
  1.2000E-03
  1.2000E-03
  1.2000E-03
  1.2000E-03
  1.2000E-03
  1.2000E-03
  1.2000E-03
  1.2000E-03
  1.2000E-03
  1.2000E-03
  1.2000E-03
  1.2000E-03
  1.2000E-03
  1.2000E-03
  1.2000E-03
  1.2000E-03
  1.2000E-03
  1.2000E-03
  1.2000E-03
  1.2000E-03
  1.2000E-03
  1.2000E-03
  1.2000E-03
  1.2000E-03
  1.2000E-03
  1.2000E-03
  1.2000E-03
  1.2000E-03
  1.2000E-03
  1.2000E-03
  1.2000E-03
  1.2000E-03
  1.2000E-03
  1.2000E-03
  1.2000E-03
  1.2000E-03
  1.2000E-03
  1.2000E-03
  1.2000E-03
  1.2000E-03
  1.2000E-03
  1.2000E-03
  1.2000E-03
  1.2000E-03
  1.2000E-03
  1.2000E-03
  1.2000E-03
  1.2000E-03
  1.2000E-03
  1.2000E-03
  1.2000E-03
  1.2000E-03
  1.2000E-03
  1.2000E-03
  1.2000E-03
  1.2000E-03
  1.2000E-03
  1.2000E-03
  1.2000E-03
  1.2000E-03
  1.2000E-03
  1.2000E-03
  1.2000E-03
  1.2000E-03
  1.2000E-03
  1.2000E-03
  1.2000E-03
  1.2000E-03
  1.2000E-03
  1.2000E-03
  1.2000E-03
  1.2000E-03
  1.2000E-03
  1.2000E-03
  1.2000E-03
  1.2000E-03
  1.2000E-03
  1.2000E-03
  1.2000E-03
  1.2000E-03
  1.2000E-03
  1.2000E-03
  1.2000E-03
  1.2000E-03
  1.2000E-03
  1.2000E-03
  1.2000E-03
  1.2000E-03
  1.2000E-03
  1.2000E-03
  1.2000E-03
  1.2000E-03
  1.2000E-03
  1.2000E-03
  1.2000E-03
  1.2000E-03
  1.2000E-03
  1.2000E-03
  1.2000E-03
  1.2000E-03
  1.2000E-03
  1.2000E-03
  1.2000E-03
  1.2000E-03
  1.2000E-03
  1.2000E-03
  1.2000E-03
  1.2000E-03
  1.2000E-03
  1.2000E-03
  1.2000E-03
  1.2000E-03
  1.2000E-03
  1.2000E-03
  1.2000E-03
  1.2000E-03
  1.2000E-03
  1.2000E-03
  1.2000E-03
  1.2000E-03
  1.2000E-03
  1.2000E-03
  1.2000E-03
  1.2000E-03
  1.2000E-03
  1.2000E-03
  1.2000E-03
  0.0000E+00
  0.0000E+00
  0.0000E+00
  0.0000E+00
  0.0000E+00
  0.0000E+00
  0.0000E+00
  0.0000E+00
  0.0000E+00
  0.0000E+00
  0.0000E+00
  0.0000E+00
  0.0000E+00
  0.0000E+00
  0.0000E+00
  0.0000E+00
  0.0000E+00
  0.0000E+00
  0.0000E+00
  0.0000E+00
  0.0000E+00
  0.0000E+00
  0.0000E+00
  0.0000E+00
  0.0000E+00
  0.0000E+00
  0.0000E+00
  0.0000E+00
  0.0000E+00
  0.0000E+00
  0.0000E+00
  0.0000E+00
  0.0000E+00
  0.0000E+00
  0.0000E+00
  0.0000E+00
  0.0000E+00
  0.0000E+00
  0.0000E+00
  0.0000E+00
  0.0000E+00
  0.0000E+00
  0.0000E+00
  0.0000E+00
  0.0000E+00
  0.0000E+00
  0.0000E+00
  0.0000E+00
  0.0000E+00
  0.0000E+00
  0.0000E+00
  0.0000E+00
  0.0000E+00
  0.0000E+00
  0.0000E+00
  0.0000E+00
  0.0000E+00
  0.0000E+00
  0.0000E+00
  0.0000E+00
  0.0000E+00
  0.0000E+00
  0.0000E+00
  0.0000E+00
  0.0000E+00
  0.0000E+00
  0.0000E+00
  0.0000E+00
  0.0000E+00
  0.0000E+00
  0.0000E+00
  0.0000E+00
  0.0000E+00
  0.0000E+00
  0.0000E+00
  0.0000E+00
  0.0000E+00
  0.0000E+00
  0.0000E+00
  0.0000E+00
  0.0000E+00
  0.0000E+00
  0.0000E+00
  0.0000E+00
  0.0000E+00
  0.0000E+00
  0.0000E+00
  0.0000E+00
  0.0000E+00
  0.0000E+00
  0.0000E+00
  0.0000E+00
  0.0000E+00
  0.0000E+00
  0.0000E+00
  0.0000E+00
  0.0000E+00
  0.0000E+00
  0.0000E+00
  0.0000E+00
  0.0000E+00
  0.0000E+00
  0.0000E+00
  0.0000E+00
  0.0000E+00
  0.0000E+00
  0.0000E+00
  0.0000E+00
  0.0000E+00
  0.0000E+00
  0.0000E+00
  0.0000E+00
  0.0000E+00
  0.0000E+00
  0.0000E+00
  0.0000E+00
  0.0000E+00
  0.0000E+00
  0.0000E+00
  0.0000E+00
  0.0000E+00
  0.0000E+00
  0.0000E+00
  0.0000E+00
  0.0000E+00
  0.0000E+00
  0.0000E+00
  0.0000E+00
  0.0000E+00
  0.0000E+00
  0.0000E+00
  0.0000E+00
  0.0000E+00
  0.0000E+00
  0.0000E+00
  0.0000E+00
  0.0000E+00
  0.0000E+00
  0.0000E+00
  0.0000E+00
  0.0000E+00
  0.0000E+00
  0.0000E+00
  0.0000E+00
  0.0000E+00
  0.0000E+00
  0.0000E+00
  0.0000E+00
  0.0000E+00
  0.0000E+00
  0.0000E+00
  0.0000E+00
  0.0000E+00
  0.0000E+00
  0.0000E+00
  0.0000E+00
  0.0000E+00
  0.0000E+00
  0.0000E+00
  0.0000E+00
  0.0000E+00
  0.0000E+00
  0.0000E+00
  0.0000E+00
  0.0000E+00
  0.0000E+00
  0.0000E+00
  0.0000E+00
  0.0000E+00
  0.0000E+00
  0.0000E+00
  0.0000E+00
  0.0000E+00
  0.0000E+00
  0.0000E+00
  0.0000E+00
  0.0000E+00
  0.0000E+00
  0.0000E+00
  0.0000E+00
  0.0000E+00
  0.0000E+00
  0.0000E+00
  0.0000E+00
  0.0000E+00
  0.0000E+00
  0.0000E+00
  0.0000E+00
  0.0000E+00
  0.0000E+00
  0.0000E+00
  0.0000E+00
  0.0000E+00
  0.0000E+00
  0.0000E+00
  0.0000E+00
  0.0000E+00
  0.0000E+00
  0.0000E+00
  0.0000E+00
  0.0000E+00
  0.0000E+00
  0.0000E+00
  0.0000E+00
  0.0000E+00
  0.0000E+00
  0.0000E+00
  0.0000E+00
  0.0000E+00
  0.0000E+00
  0.0000E+00
  0.0000E+00
  0.0000E+00
  0.0000E+00
  0.0000E+00
  0.0000E+00
  0.0000E+00
  0.0000E+00
  0.0000E+00
  0.0000E+00
  0.0000E+00
  0.0000E+00
  0.0000E+00
  0.0000E+00
  0.0000E+00
  0.0000E+00
  0.0000E+00
  0.0000E+00
  0.0000E+00
  0.0000E+00
  0.0000E+00
  0.0000E+00
  0.0000E+00
  0.0000E+00
  0.0000E+00
  0.0000E+00
  0.0000E+00
  0.0000E+00
  0.0000E+00
  0.0000E+00
  0.0000E+00
  0.0000E+00
  0.0000E+00
  0.0000E+00
  0.0000E+00
  0.0000E+00
  0.0000E+00
  0.0000E+00
  0.0000E+00
  0.0000E+00
  0.0000E+00
  0.0000E+00
  0.0000E+00
  0.0000E+00
  0.0000E+00
  0.0000E+00
  0.0000E+00
  0.0000E+00
  0.0000E+00
  0.0000E+00
  0.0000E+00
  0.0000E+00
  0.0000E+00
  0.0000E+00
  0.0000E+00
  0.0000E+00
  0.0000E+00
  0.0000E+00
  0.0000E+00
  0.0000E+00
  0.0000E+00
  0.0000E+00
  0.0000E+00
  0.0000E+00
  0.0000E+00
  0.0000E+00
  0.0000E+00
  0.0000E+00
  0.0000E+00
  0.0000E+00
  0.0000E+00
  0.0000E+00
  0.0000E+00
  0.0000E+00
  0.0000E+00
  0.0000E+00
  0.0000E+00
  0.0000E+00
  0.0000E+00
  0.0000E+00
  0.0000E+00
  0.0000E+00
  0.0000E+00
  0.0000E+00
  0.0000E+00
  0.0000E+00
  0.0000E+00
  0.0000E+00
  0.0000E+00
  0.0000E+00
  0.0000E+00
  0.0000E+00
  0.0000E+00
  0.0000E+00
  0.0000E+00
  0.0000E+00
  0.0000E+00
  0.0000E+00
  0.0000E+00
  0.0000E+00
  0.0000E+00
  0.0000E+00
  0.0000E+00
  0.0000E+00
  0.0000E+00
  0.0000E+00
  0.0000E+00
  0.0000E+00
  0.0000E+00
  0.0000E+00
  0.0000E+00
  0.0000E+00
  0.0000E+00
  0.0000E+00
  0.0000E+00
  0.0000E+00
  0.0000E+00
  0.0000E+00
  0.0000E+00
  0.0000E+00
  0.0000E+00
  0.0000E+00
  0.0000E+00
  0.0000E+00
  0.0000E+00
  0.0000E+00
  0.0000E+00
  0.0000E+00
  0.0000E+00
  0.0000E+00
  0.0000E+00
  0.0000E+00
  0.0000E+00
  0.0000E+00
  0.0000E+00
  0.0000E+00
  0.0000E+00
  0.0000E+00
  0.0000E+00
  0.0000E+00
  0.0000E+00
  0.0000E+00
  0.0000E+00
  0.0000E+00
  0.0000E+00
  0.0000E+00
  0.0000E+00
  0.0000E+00
  0.0000E+00
  0.0000E+00
  0.0000E+00
  0.0000E+00
  0.0000E+00
  0.0000E+00
  0.0000E+00
  0.0000E+00
  0.0000E+00
  0.0000E+00
  0.0000E+00
  0.0000E+00
  0.0000E+00
  0.0000E+00
  0.0000E+00
  0.0000E+00
  0.0000E+00
  0.0000E+00
  0.0000E+00
  0.0000E+00
  0.0000E+00
  0.0000E+00
  0.0000E+00
  0.0000E+00
  0.0000E+00
  0.0000E+00
  0.0000E+00
  0.0000E+00
  0.0000E+00
  0.0000E+00
  0.0000E+00
  0.0000E+00
  0.0000E+00
  0.0000E+00
  0.0000E+00
  0.0000E+00
  0.0000E+00
  0.0000E+00
  0.0000E+00
  0.0000E+00
  0.0000E+00
  0.0000E+00
  0.0000E+00
  0.0000E+00
  0.0000E+00
  0.0000E+00
  0.0000E+00
  0.0000E+00
  0.0000E+00
  0.0000E+00
  0.0000E+00
  0.0000E+00
  0.0000E+00
  0.0000E+00
  0.0000E+00
  0.0000E+00
  0.0000E+00
  0.0000E+00
  0.0000E+00
  0.0000E+00
  0.0000E+00
  0.0000E+00
  0.0000E+00
  0.0000E+00
  0.0000E+00
  0.0000E+00
  0.0000E+00
  0.0000E+00
  0.0000E+00
  0.0000E+00
  0.0000E+00
  0.0000E+00
  0.0000E+00
  0.0000E+00
  0.0000E+00
  0.0000E+00
  0.0000E+00
  0.0000E+00
  0.0000E+00
  0.0000E+00
  0.0000E+00
  0.0000E+00
  0.0000E+00
  0.0000E+00
  0.0000E+00
  0.0000E+00
  0.0000E+00
  0.0000E+00
  0.0000E+00
  0.0000E+00
  0.0000E+00
  0.0000E+00
  0.0000E+00
  0.0000E+00
  0.0000E+00
  0.0000E+00
  0.0000E+00
  0.0000E+00
  0.0000E+00
  0.0000E+00
  0.0000E+00
  0.0000E+00
  0.0000E+00
  0.0000E+00
  0.0000E+00
  0.0000E+00
  0.0000E+00
  0.0000E+00
  0.0000E+00
  0.0000E+00
  0.0000E+00
  0.0000E+00
  0.0000E+00
  0.0000E+00
  0.0000E+00
  0.0000E+00
  0.0000E+00
  0.0000E+00
  0.0000E+00
  0.0000E+00
  0.0000E+00
  0.0000E+00
  0.0000E+00
  0.0000E+00
  0.0000E+00
  0.0000E+00
  0.0000E+00
  0.0000E+00
  0.0000E+00
  0.0000E+00
  0.0000E+00
  0.0000E+00
  0.0000E+00
  0.0000E+00
  0.0000E+00
  0.0000E+00
  0.0000E+00
  0.0000E+00
  0.0000E+00
  0.0000E+00
  0.0000E+00
  0.0000E+00
  0.0000E+00
  0.0000E+00
  0.0000E+00
  0.0000E+00
  0.0000E+00
  0.0000E+00
  0.0000E+00
  0.0000E+00
  0.0000E+00
  0.0000E+00
  0.0000E+00
  0.0000E+00
  0.0000E+00
  0.0000E+00
  0.0000E+00
  0.0000E+00
  0.0000E+00
  0.0000E+00
  0.0000E+00
  0.0000E+00
  0.0000E+00
  0.0000E+00
  0.0000E+00
  0.0000E+00
  0.0000E+00
  0.0000E+00
  0.0000E+00
  0.0000E+00
  0.0000E+00
  0.0000E+00
  0.0000E+00
  0.0000E+00
  0.0000E+00
  0.0000E+00
  0.0000E+00
  0.0000E+00
  0.0000E+00
  0.0000E+00
  0.0000E+00
  0.0000E+00
  0.0000E+00
  0.0000E+00
  0.0000E+00
  0.0000E+00
  0.0000E+00
  0.0000E+00
  0.0000E+00
  0.0000E+00
  0.0000E+00
  0.0000E+00
  0.0000E+00
  0.0000E+00
  0.0000E+00
  0.0000E+00
  0.0000E+00
  0.0000E+00
  0.0000E+00
  0.0000E+00
  0.0000E+00
  0.0000E+00
  0.0000E+00
  0.0000E+00
  0.0000E+00
  0.0000E+00
  0.0000E+00
  0.0000E+00
  0.0000E+00
  0.0000E+00
  0.0000E+00
  0.0000E+00
  0.0000E+00
  0.0000E+00
  0.0000E+00
  0.0000E+00
  0.0000E+00
  0.0000E+00
  0.0000E+00
  0.0000E+00
  0.0000E+00
  0.0000E+00
  0.0000E+00
  0.0000E+00
  0.0000E+00
  0.0000E+00
  0.0000E+00
  0.0000E+00
  0.0000E+00
  0.0000E+00
  0.0000E+00
  0.0000E+00
  0.0000E+00
  0.0000E+00
  0.0000E+00
  0.0000E+00
  0.0000E+00
  0.0000E+00
  0.0000E+00
  0.0000E+00
  0.0000E+00
  0.0000E+00
  0.0000E+00
  0.0000E+00
  0.0000E+00
  0.0000E+00
  0.0000E+00
  0.0000E+00
  0.0000E+00
  0.0000E+00
  0.0000E+00
  0.0000E+00
  0.0000E+00
  0.0000E+00
  0.0000E+00
  0.0000E+00
  0.0000E+00
  0.0000E+00
  0.0000E+00
  0.0000E+00
  0.0000E+00
  0.0000E+00
  0.0000E+00
  0.0000E+00
  0.0000E+00
  0.0000E+00
  0.0000E+00
  0.0000E+00
  0.0000E+00
  0.0000E+00
  0.0000E+00
  0.0000E+00
  0.0000E+00
  0.0000E+00
  0.0000E+00
  0.0000E+00
  0.0000E+00
  0.0000E+00
  0.0000E+00
  0.0000E+00
  0.0000E+00
  0.0000E+00
  0.0000E+00
  0.0000E+00
  0.0000E+00
  0.0000E+00
  0.0000E+00
  0.0000E+00
  0.0000E+00
  0.0000E+00
  0.0000E+00
  0.0000E+00
  0.0000E+00
  0.0000E+00
  0.0000E+00
  0.0000E+00
  0.0000E+00
  0.0000E+00
  0.0000E+00
  0.0000E+00
  0.0000E+00
  0.0000E+00
  0.0000E+00
  0.0000E+00
  0.0000E+00
  0.0000E+00
  0.0000E+00
  0.0000E+00
  0.0000E+00
  0.0000E+00
  0.0000E+00
  0.0000E+00
  0.0000E+00
  0.0000E+00
  0.0000E+00
  0.0000E+00
  0.0000E+00
  0.0000E+00
  0.0000E+00
  0.0000E+00
  0.0000E+00
  0.0000E+00
  0.0000E+00
  0.0000E+00
  0.0000E+00
  0.0000E+00
  0.0000E+00
  0.0000E+00
  0.0000E+00
  0.0000E+00
  0.0000E+00
  0.0000E+00
  0.0000E+00
  0.0000E+00
  0.0000E+00
  0.0000E+00
  0.0000E+00
  0.0000E+00
  0.0000E+00
  0.0000E+00
  0.0000E+00
  0.0000E+00
  0.0000E+00
  0.0000E+00
  0.0000E+00
  0.0000E+00
  0.0000E+00
  0.0000E+00
  0.0000E+00
  0.0000E+00
  0.0000E+00
  0.0000E+00
  0.0000E+00
  0.0000E+00
  0.0000E+00
  0.0000E+00
  0.0000E+00
  0.0000E+00
  0.0000E+00
  0.0000E+00
  0.0000E+00
  0.0000E+00
  0.0000E+00
  0.0000E+00
  0.0000E+00
  0.0000E+00
  0.0000E+00
  0.0000E+00
  0.0000E+00
  0.0000E+00
  0.0000E+00
  0.0000E+00
  0.0000E+00
  0.0000E+00
  0.0000E+00
  0.0000E+00
  0.0000E+00
  0.0000E+00
  0.0000E+00
  0.0000E+00
  0.0000E+00
  0.0000E+00
  0.0000E+00
  0.0000E+00
  0.0000E+00
  0.0000E+00
  0.0000E+00
  0.0000E+00
  0.0000E+00
  0.0000E+00
  0.0000E+00
  0.0000E+00
  0.0000E+00
  0.0000E+00
  0.0000E+00
  0.0000E+00
  0.0000E+00
  0.0000E+00
  0.0000E+00
  0.0000E+00
  0.0000E+00
  0.0000E+00
  0.0000E+00
  0.0000E+00
  0.0000E+00
  0.0000E+00
  0.0000E+00
  0.0000E+00
  0.0000E+00
  0.0000E+00
  0.0000E+00
  0.0000E+00
  0.0000E+00
  0.0000E+00
  0.0000E+00
  0.0000E+00
  0.0000E+00
  0.0000E+00
  0.0000E+00
  0.0000E+00
  0.0000E+00
  0.0000E+00
  0.0000E+00
  0.0000E+00
  0.0000E+00
  0.0000E+00
  0.0000E+00
  0.0000E+00
  0.0000E+00
  0.0000E+00
  0.0000E+00
  0.0000E+00
  0.0000E+00
  0.0000E+00
  0.0000E+00
  0.0000E+00
  0.0000E+00
  0.0000E+00
  0.0000E+00
  0.0000E+00
  0.0000E+00
  0.0000E+00
  0.0000E+00
  0.0000E+00
  0.0000E+00
  0.0000E+00
  0.0000E+00
  0.0000E+00
  0.0000E+00
  0.0000E+00
  0.0000E+00
  0.0000E+00
  0.0000E+00
  0.0000E+00
  0.0000E+00
  0.0000E+00
  0.0000E+00
  0.0000E+00
  0.0000E+00
  0.0000E+00
  0.0000E+00
  0.0000E+00
  0.0000E+00
  0.0000E+00
  0.0000E+00
  0.0000E+00
  0.0000E+00
  0.0000E+00
  0.0000E+00
  0.0000E+00
  0.0000E+00
  0.0000E+00
  0.0000E+00
  0.0000E+00
  0.0000E+00
  0.0000E+00
  0.0000E+00
  0.0000E+00
  0.0000E+00
  0.0000E+00
  0.0000E+00
  0.0000E+00
  0.0000E+00
  0.0000E+00
  0.0000E+00
  0.0000E+00
  0.0000E+00
  0.0000E+00
  0.0000E+00
  0.0000E+00
  0.0000E+00
  0.0000E+00
  0.0000E+00
  0.0000E+00
  0.0000E+00
  0.0000E+00
  0.0000E+00
  0.0000E+00
  0.0000E+00
  0.0000E+00
  0.0000E+00
  0.0000E+00
  0.0000E+00
  0.0000E+00
  0.0000E+00
  0.0000E+00
  0.0000E+00
  0.0000E+00
  0.0000E+00
  0.0000E+00
  0.0000E+00
  0.0000E+00
  0.0000E+00
  0.0000E+00
  0.0000E+00
  0.0000E+00
  0.0000E+00
  0.0000E+00
  0.0000E+00
  0.0000E+00
  0.0000E+00
  0.0000E+00
  0.0000E+00
  0.0000E+00
  0.0000E+00
  0.0000E+00
  0.0000E+00
  0.0000E+00
  0.0000E+00
  0.0000E+00
  0.0000E+00
  0.0000E+00
  0.0000E+00
  0.0000E+00
  0.0000E+00
  0.0000E+00
  0.0000E+00
  0.0000E+00
  0.0000E+00
  0.0000E+00
  0.0000E+00
  0.0000E+00
  0.0000E+00
  0.0000E+00
  0.0000E+00
  0.0000E+00
  0.0000E+00
  0.0000E+00
  0.0000E+00
  0.0000E+00
  0.0000E+00
  0.0000E+00
  0.0000E+00
  0.0000E+00
  0.0000E+00
  0.0000E+00
  0.0000E+00
  0.0000E+00
  0.0000E+00
  0.0000E+00
  0.0000E+00
  0.0000E+00
  0.0000E+00
  0.0000E+00
  0.0000E+00
  0.0000E+00
  0.0000E+00
  0.0000E+00
  0.0000E+00
  0.0000E+00
  0.0000E+00
  0.0000E+00
  0.0000E+00
  0.0000E+00
  0.0000E+00
  0.0000E+00
  0.0000E+00
  0.0000E+00
