Scalar VONMISES under Static for nodeset
1872
   0.0000E+00
  2.4000E+08
  2.4000E+08
  2.4000E+08
  2.4000E+08
  2.4000E+08
  2.4000E+08
  2.4000E+08
  2.4000E+08
  2.4000E+08
  2.4000E+08
  2.4000E+08
  2.4000E+08
  2.4000E+08
  2.4000E+08
  2.4000E+08
  2.4000E+08
  2.4000E+08
  2.4000E+08
  2.4000E+08
  2.4000E+08
  2.4000E+08
  2.4000E+08
  2.4000E+08
  2.4000E+08
  2.4000E+08
  2.4000E+08
  2.4000E+08
  2.4000E+08
  2.4000E+08
  2.4000E+08
  2.4000E+08
  2.4000E+08
  2.4000E+08
  2.4000E+08
  2.4000E+08
  2.4000E+08
  2.4000E+08
  2.4000E+08
  2.4000E+08
  2.4000E+08
  2.4000E+08
  2.4000E+08
  2.4000E+08
  2.4000E+08
  2.4000E+08
  2.4000E+08
  2.4000E+08
  2.4000E+08
  2.4000E+08
  2.4000E+08
  2.4000E+08
  2.4000E+08
  2.4000E+08
  2.4000E+08
  2.4000E+08
  2.4000E+08
  2.4000E+08
  2.4000E+08
  2.4000E+08
  2.4000E+08
  2.4000E+08
  2.4000E+08
  2.4000E+08
  2.4000E+08
  2.4000E+08
  2.4000E+08
  2.4000E+08
  2.4000E+08
  2.4000E+08
  2.4000E+08
  2.4000E+08
  2.4000E+08
  2.4000E+08
  2.4000E+08
  2.4000E+08
  2.4000E+08
  2.4000E+08
  2.4000E+08
  2.4000E+08
  2.4000E+08
  2.4000E+08
  2.4000E+08
  2.4000E+08
  2.4000E+08
  2.4000E+08
  2.4000E+08
  2.4000E+08
  2.4000E+08
  2.4000E+08
  2.4000E+08
  2.4000E+08
  2.4000E+08
  2.4000E+08
  2.4000E+08
  2.4000E+08
  2.4000E+08
  2.4000E+08
  2.4000E+08
  2.4000E+08
  2.4000E+08
  2.4000E+08
  2.4000E+08
  2.4000E+08
  2.4000E+08
  2.4000E+08
  2.4000E+08
  2.4000E+08
  2.4000E+08
  2.4000E+08
  2.4000E+08
  2.4000E+08
  2.4000E+08
  2.4000E+08
  2.4000E+08
  2.4000E+08
  2.4000E+08
  2.4000E+08
  2.4000E+08
  2.4000E+08
  2.4000E+08
  2.4000E+08
  2.4000E+08
  2.4000E+08
  2.4000E+08
  2.4000E+08
  2.4000E+08
  2.4000E+08
  2.4000E+08
  2.4000E+08
  2.4000E+08
  2.4000E+08
  2.4000E+08
  2.4000E+08
  2.4000E+08
  2.4000E+08
  2.4000E+08
  2.4000E+08
  2.4000E+08
  2.4000E+08
  2.4000E+08
  2.4000E+08
  2.4000E+08
  2.4000E+08
  2.4000E+08
  2.4000E+08
  2.4000E+08
  2.4000E+08
  2.4000E+08
  2.4000E+08
  2.4000E+08
  2.4000E+08
  2.4000E+08
  2.4000E+08
  2.4000E+08
  2.4000E+08
  2.4000E+08
  2.4000E+08
  2.4000E+08
  2.4000E+08
  2.4000E+08
  2.4000E+08
  2.4000E+08
  2.4000E+08
  2.4000E+08
  2.4000E+08
  2.4000E+08
  2.4000E+08
  2.4000E+08
  2.4000E+08
  2.4000E+08
  2.4000E+08
  2.4000E+08
  2.4000E+08
  2.4000E+08
  2.4000E+08
  2.4000E+08
  2.4000E+08
  2.4000E+08
  2.4000E+08
  2.4000E+08
  2.4000E+08
  2.4000E+08
  2.4000E+08
  2.4000E+08
  2.4000E+08
  2.4000E+08
  2.4000E+08
  2.4000E+08
  2.4000E+08
  2.4000E+08
  2.4000E+08
  2.4000E+08
  2.4000E+08
  2.4000E+08
  2.4000E+08
  2.4000E+08
  2.4000E+08
  2.4000E+08
  2.4000E+08
  2.4000E+08
  2.4000E+08
  2.4000E+08
  2.4000E+08
  2.4000E+08
  2.4000E+08
  2.4000E+08
  2.4000E+08
  2.4000E+08
  2.4000E+08
  2.4000E+08
  2.4000E+08
  2.4000E+08
  2.4000E+08
  2.4000E+08
  2.4000E+08
  2.4000E+08
  2.4000E+08
  2.4000E+08
  2.4000E+08
  2.4000E+08
  2.4000E+08
  2.4000E+08
  2.4000E+08
  2.4000E+08
  2.4000E+08
  2.4000E+08
  2.4000E+08
  2.4000E+08
  2.4000E+08
  2.4000E+08
  2.4000E+08
  2.4000E+08
  2.4000E+08
  2.4000E+08
  2.4000E+08
  2.4000E+08
  2.4000E+08
  2.4000E+08
  2.4000E+08
  2.4000E+08
  2.4000E+08
  2.4000E+08
  2.4000E+08
  2.4000E+08
  2.4000E+08
  2.4000E+08
  2.4000E+08
  2.4000E+08
  2.4000E+08
  2.4000E+08
  2.4000E+08
  2.4000E+08
  2.4000E+08
  2.4000E+08
  2.4000E+08
  2.4000E+08
  2.4000E+08
  2.4000E+08
  2.4000E+08
  2.4000E+08
  2.4000E+08
  2.4000E+08
  2.4000E+08
  2.4000E+08
  2.4000E+08
  2.4000E+08
  2.4000E+08
  2.4000E+08
  2.4000E+08
  2.4000E+08
  2.4000E+08
  2.4000E+08
  2.4000E+08
  2.4000E+08
  2.4000E+08
  2.4000E+08
  2.4000E+08
  2.4000E+08
  2.4000E+08
  2.4000E+08
  2.4000E+08
  2.4000E+08
  2.4000E+08
  2.4000E+08
  2.4000E+08
  2.4000E+08
  2.4000E+08
  2.4000E+08
  2.4000E+08
  2.4000E+08
  2.4000E+08
  2.4000E+08
  2.4000E+08
  2.4000E+08
  2.4000E+08
  2.4000E+08
  2.4000E+08
  2.4000E+08
  2.4000E+08
  2.4000E+08
  2.4000E+08
  2.4000E+08
  2.4000E+08
  2.4000E+08
  2.4000E+08
  2.4000E+08
  2.4000E+08
  2.4000E+08
  2.4000E+08
  2.4000E+08
  2.4000E+08
  2.4000E+08
  2.4000E+08
  2.4000E+08
  2.4000E+08
  2.4000E+08
  2.4000E+08
  2.4000E+08
  2.4000E+08
  2.4000E+08
  2.4000E+08
  2.4000E+08
  2.4000E+08
  2.4000E+08
  2.4000E+08
  2.4000E+08
  2.4000E+08
  2.4000E+08
  2.4000E+08
  2.4000E+08
  2.4000E+08
  2.4000E+08
  2.4000E+08
  2.4000E+08
  2.4000E+08
  2.4000E+08
  2.4000E+08
  2.4000E+08
  2.4000E+08
  2.4000E+08
  2.4000E+08
  2.4000E+08
  2.4000E+08
  2.4000E+08
  2.4000E+08
  2.4000E+08
  2.4000E+08
  2.4000E+08
  2.4000E+08
  2.4000E+08
  2.4000E+08
  2.4000E+08
  2.4000E+08
  2.4000E+08
  2.4000E+08
  2.4000E+08
  2.4000E+08
  2.4000E+08
  2.4000E+08
  2.4000E+08
  2.4000E+08
  2.4000E+08
  2.4000E+08
  2.4000E+08
  2.4000E+08
  2.4000E+08
  2.4000E+08
  2.4000E+08
  2.4000E+08
  2.4000E+08
  2.4000E+08
  2.4000E+08
  2.4000E+08
  2.4000E+08
  2.4000E+08
  2.4000E+08
  2.4000E+08
  2.4000E+08
  2.4000E+08
  2.4000E+08
  2.4000E+08
  2.4000E+08
  2.4000E+08
  2.4000E+08
  2.4000E+08
  2.4000E+08
  2.4000E+08
  2.4000E+08
  2.4000E+08
  2.4000E+08
  2.4000E+08
  2.4000E+08
  2.4000E+08
  2.4000E+08
  2.4000E+08
  2.4000E+08
  2.4000E+08
  2.4000E+08
  2.4000E+08
  2.4000E+08
  2.4000E+08
  2.4000E+08
  2.4000E+08
  2.4000E+08
  2.4000E+08
  2.4000E+08
  2.4000E+08
  2.4000E+08
  2.4000E+08
  2.4000E+08
  2.4000E+08
  2.4000E+08
  2.4000E+08
  2.4000E+08
  2.4000E+08
  2.4000E+08
  2.4000E+08
  2.4000E+08
  2.4000E+08
  2.4000E+08
  2.4000E+08
  2.4000E+08
  2.4000E+08
  2.4000E+08
  2.4000E+08
  2.4000E+08
  2.4000E+08
  2.4000E+08
  2.4000E+08
  2.4000E+08
  2.4000E+08
  2.4000E+08
  2.4000E+08
  2.4000E+08
  2.4000E+08
  2.4000E+08
  2.4000E+08
  2.4000E+08
  2.4000E+08
  2.4000E+08
  2.4000E+08
  2.4000E+08
  2.4000E+08
  2.4000E+08
  2.4000E+08
  2.4000E+08
  2.4000E+08
  2.4000E+08
  2.4000E+08
  2.4000E+08
  2.4000E+08
  2.4000E+08
  2.4000E+08
  2.4000E+08
  2.4000E+08
  2.4000E+08
  2.4000E+08
  2.4000E+08
  2.4000E+08
  2.4000E+08
  2.4000E+08
  2.4000E+08
  2.4000E+08
  2.4000E+08
  2.4000E+08
  2.4000E+08
  2.4000E+08
  2.4000E+08
  2.4000E+08
  2.4000E+08
  2.4000E+08
  2.4000E+08
  2.4000E+08
  2.4000E+08
  2.4000E+08
  2.4000E+08
  2.4000E+08
  2.4000E+08
  2.4000E+08
  2.4000E+08
  2.4000E+08
  2.4000E+08
  2.4000E+08
  2.4000E+08
  2.4000E+08
  2.4000E+08
  2.4000E+08
  2.4000E+08
  2.4000E+08
  2.4000E+08
  2.4000E+08
  2.4000E+08
  2.4000E+08
  2.4000E+08
  2.4000E+08
  2.4000E+08
  2.4000E+08
  2.4000E+08
  2.4000E+08
  2.4000E+08
  2.4000E+08
  2.4000E+08
  2.4000E+08
  2.4000E+08
  2.4000E+08
  2.4000E+08
  2.4000E+08
  2.4000E+08
  2.4000E+08
  2.4000E+08
  2.4000E+08
  2.4000E+08
  2.4000E+08
  2.4000E+08
  2.4000E+08
  2.4000E+08
  2.4000E+08
  2.4000E+08
  2.4000E+08
  2.4000E+08
  2.4000E+08
  2.4000E+08
  2.4000E+08
  2.4000E+08
  2.4000E+08
  2.4000E+08
  2.4000E+08
  2.4000E+08
  2.4000E+08
  2.4000E+08
  2.4000E+08
  2.4000E+08
  2.4000E+08
  2.4000E+08
  2.4000E+08
  2.4000E+08
  2.4000E+08
  2.4000E+08
  2.4000E+08
  2.4000E+08
  2.4000E+08
  2.4000E+08
  2.4000E+08
  2.4000E+08
  2.4000E+08
  2.4000E+08
  2.4000E+08
  2.4000E+08
  2.4000E+08
  2.4000E+08
  2.4000E+08
  2.4000E+08
  2.4000E+08
  2.4000E+08
  2.4000E+08
  2.4000E+08
  2.4000E+08
  2.4000E+08
  2.4000E+08
  2.4000E+08
  2.4000E+08
  2.4000E+08
  2.4000E+08
  2.4000E+08
  2.4000E+08
  2.4000E+08
  2.4000E+08
  2.4000E+08
  2.4000E+08
  2.4000E+08
  2.4000E+08
  2.4000E+08
  2.4000E+08
  2.4000E+08
  2.4000E+08
  2.4000E+08
  2.4000E+08
  2.4000E+08
  2.4000E+08
  2.4000E+08
  2.4000E+08
  2.4000E+08
  2.4000E+08
  2.4000E+08
  2.4000E+08
  2.4000E+08
  2.4000E+08
  2.4000E+08
  2.4000E+08
  2.4000E+08
  2.4000E+08
  2.4000E+08
  2.4000E+08
  2.4000E+08
  2.4000E+08
  2.4000E+08
  2.4000E+08
  2.4000E+08
  2.4000E+08
  2.4000E+08
  2.4000E+08
  2.4000E+08
  2.4000E+08
  2.4000E+08
  2.4000E+08
  2.4000E+08
  2.4000E+08
  2.4000E+08
  2.4000E+08
  2.4000E+08
  2.4000E+08
  2.4000E+08
  2.4000E+08
  2.4000E+08
  2.4000E+08
  2.4000E+08
  2.4000E+08
  2.4000E+08
  2.4000E+08
  2.4000E+08
  2.4000E+08
  2.4000E+08
  2.4000E+08
  2.4000E+08
  2.4000E+08
  2.4000E+08
  2.4000E+08
  2.4000E+08
  2.4000E+08
  2.4000E+08
  2.4000E+08
  2.4000E+08
  2.4000E+08
  2.4000E+08
  2.4000E+08
  2.4000E+08
  2.4000E+08
  2.4000E+08
  2.4000E+08
  2.4000E+08
  2.4000E+08
  2.4000E+08
  2.4000E+08
  2.4000E+08
  2.4000E+08
  2.4000E+08
  2.4000E+08
  2.4000E+08
  2.4000E+08
  2.4000E+08
  2.4000E+08
  2.4000E+08
  2.4000E+08
  2.4000E+08
  2.4000E+08
  2.4000E+08
  2.4000E+08
  2.4000E+08
  2.4000E+08
  2.4000E+08
  2.4000E+08
  2.4000E+08
  2.4000E+08
  2.4000E+08
  2.4000E+08
  2.4000E+08
  2.4000E+08
  2.4000E+08
  2.4000E+08
  2.4000E+08
  2.4000E+08
  2.4000E+08
  2.4000E+08
  2.4000E+08
  2.4000E+08
  2.4000E+08
  2.4000E+08
  2.4000E+08
  2.4000E+08
  2.4000E+08
  2.4000E+08
  2.4000E+08
  2.4000E+08
  2.4000E+08
  2.4000E+08
  2.4000E+08
  2.4000E+08
  2.4000E+08
  2.4000E+08
  2.4000E+08
  2.4000E+08
  2.4000E+08
  2.4000E+08
  2.4000E+08
  2.4000E+08
  2.4000E+08
  2.4000E+08
  2.4000E+08
  2.4000E+08
  2.4000E+08
  2.4000E+08
  2.4000E+08
  2.4000E+08
  2.4000E+08
  2.4000E+08
  2.4000E+08
  2.4000E+08
  2.4000E+08
  2.4000E+08
  2.4000E+08
  2.4000E+08
  2.4000E+08
  2.4000E+08
  2.4000E+08
  2.4000E+08
  2.4000E+08
  2.4000E+08
  2.4000E+08
  2.4000E+08
  2.4000E+08
  2.4000E+08
  2.4000E+08
  2.4000E+08
  2.4000E+08
  2.4000E+08
  2.4000E+08
  2.4000E+08
  2.4000E+08
  2.4000E+08
  2.4000E+08
  2.4000E+08
  2.4000E+08
  2.4000E+08
  2.4000E+08
  2.4000E+08
  2.4000E+08
  2.4000E+08
  2.4000E+08
  2.4000E+08
  2.4000E+08
  2.4000E+08
  2.4000E+08
  2.4000E+08
  2.4000E+08
  2.4000E+08
  2.4000E+08
  2.4000E+08
  2.4000E+08
  2.4000E+08
  2.4000E+08
  2.4000E+08
  2.4000E+08
  2.4000E+08
  2.4000E+08
  2.4000E+08
  2.4000E+08
  2.4000E+08
  2.4000E+08
  2.4000E+08
  2.4000E+08
  2.4000E+08
  2.4000E+08
  2.4000E+08
  2.4000E+08
  2.4000E+08
  2.4000E+08
  2.4000E+08
  2.4000E+08
  2.4000E+08
  2.4000E+08
  2.4000E+08
  2.4000E+08
  2.4000E+08
  2.4000E+08
  2.4000E+08
  2.4000E+08
  2.4000E+08
  2.4000E+08
  2.4000E+08
  2.4000E+08
  2.4000E+08
  2.4000E+08
  2.4000E+08
  2.4000E+08
  2.4000E+08
  2.4000E+08
  2.4000E+08
  2.4000E+08
  2.4000E+08
  2.4000E+08
  2.4000E+08
  2.4000E+08
  2.4000E+08
  2.4000E+08
  2.4000E+08
  2.4000E+08
  2.4000E+08
  2.4000E+08
  2.4000E+08
  2.4000E+08
  2.4000E+08
  2.4000E+08
  2.4000E+08
  2.4000E+08
  2.4000E+08
  2.4000E+08
  2.4000E+08
  2.4000E+08
  2.4000E+08
  2.4000E+08
  2.4000E+08
  2.4000E+08
  2.4000E+08
  2.4000E+08
  2.4000E+08
  2.4000E+08
  2.4000E+08
  2.4000E+08
  2.4000E+08
  2.4000E+08
  2.4000E+08
  2.4000E+08
  2.4000E+08
  2.4000E+08
  2.4000E+08
  2.4000E+08
  2.4000E+08
  2.4000E+08
  2.4000E+08
  2.4000E+08
  2.4000E+08
  2.4000E+08
  2.4000E+08
  2.4000E+08
  2.4000E+08
  2.4000E+08
  2.4000E+08
  2.4000E+08
  2.4000E+08
  2.4000E+08
  2.4000E+08
  2.4000E+08
  2.4000E+08
  2.4000E+08
  2.4000E+08
  2.4000E+08
  2.4000E+08
  2.4000E+08
  2.4000E+08
  2.4000E+08
  2.4000E+08
  2.4000E+08
  2.4000E+08
  2.4000E+08
  2.4000E+08
  2.4000E+08
  2.4000E+08
  2.4000E+08
  2.4000E+08
  2.4000E+08
  2.4000E+08
  2.4000E+08
  2.4000E+08
  2.4000E+08
  2.4000E+08
  2.4000E+08
  2.4000E+08
  2.4000E+08
  2.4000E+08
  2.4000E+08
  2.4000E+08
  2.4000E+08
  2.4000E+08
  2.4000E+08
  2.4000E+08
  2.4000E+08
  2.4000E+08
  2.4000E+08
  2.4000E+08
  2.4000E+08
  2.4000E+08
  2.4000E+08
  2.4000E+08
  2.4000E+08
  2.4000E+08
  2.4000E+08
  2.4000E+08
  2.4000E+08
  2.4000E+08
  2.4000E+08
  2.4000E+08
  2.4000E+08
  2.4000E+08
  2.4000E+08
  2.4000E+08
  2.4000E+08
  2.4000E+08
  2.4000E+08
  2.4000E+08
  2.4000E+08
  2.4000E+08
  2.4000E+08
  2.4000E+08
  2.4000E+08
  2.4000E+08
  2.4000E+08
  2.4000E+08
  2.4000E+08
  2.4000E+08
  2.4000E+08
  2.4000E+08
  2.4000E+08
  2.4000E+08
  2.4000E+08
  2.4000E+08
  2.4000E+08
  2.4000E+08
  2.4000E+08
  2.4000E+08
  2.4000E+08
  2.4000E+08
  2.4000E+08
  2.4000E+08
  2.4000E+08
  2.4000E+08
  2.4000E+08
  2.4000E+08
  2.4000E+08
  2.4000E+08
  2.4000E+08
  2.4000E+08
  2.4000E+08
  2.4000E+08
  2.4000E+08
  2.4000E+08
  2.4000E+08
  0.0000E+00
  0.0000E+00
  0.0000E+00
  0.0000E+00
  0.0000E+00
  0.0000E+00
  0.0000E+00
  0.0000E+00
  0.0000E+00
  0.0000E+00
  0.0000E+00
  0.0000E+00
  0.0000E+00
  0.0000E+00
  0.0000E+00
  0.0000E+00
  0.0000E+00
  0.0000E+00
  0.0000E+00
  0.0000E+00
  0.0000E+00
  0.0000E+00
  0.0000E+00
  0.0000E+00
  0.0000E+00
  0.0000E+00
  0.0000E+00
  0.0000E+00
  0.0000E+00
  0.0000E+00
  0.0000E+00
  0.0000E+00
  0.0000E+00
  0.0000E+00
  0.0000E+00
  0.0000E+00
  0.0000E+00
  0.0000E+00
  0.0000E+00
  0.0000E+00
  0.0000E+00
  0.0000E+00
  0.0000E+00
  0.0000E+00
  0.0000E+00
  0.0000E+00
  0.0000E+00
  0.0000E+00
  0.0000E+00
  0.0000E+00
  0.0000E+00
  0.0000E+00
  0.0000E+00
  0.0000E+00
  0.0000E+00
  0.0000E+00
  0.0000E+00
  0.0000E+00
  0.0000E+00
  0.0000E+00
  0.0000E+00
  0.0000E+00
  0.0000E+00
  0.0000E+00
  0.0000E+00
  0.0000E+00
  0.0000E+00
  0.0000E+00
  0.0000E+00
  0.0000E+00
  0.0000E+00
  0.0000E+00
  0.0000E+00
  0.0000E+00
  0.0000E+00
  0.0000E+00
  0.0000E+00
  0.0000E+00
  0.0000E+00
  0.0000E+00
  0.0000E+00
  0.0000E+00
  0.0000E+00
  0.0000E+00
  0.0000E+00
  0.0000E+00
  0.0000E+00
  0.0000E+00
  0.0000E+00
  0.0000E+00
  0.0000E+00
  0.0000E+00
  0.0000E+00
  0.0000E+00
  0.0000E+00
  0.0000E+00
  0.0000E+00
  0.0000E+00
  0.0000E+00
  0.0000E+00
  0.0000E+00
  0.0000E+00
  0.0000E+00
  0.0000E+00
  0.0000E+00
  0.0000E+00
  0.0000E+00
  0.0000E+00
  0.0000E+00
  0.0000E+00
  0.0000E+00
  0.0000E+00
  0.0000E+00
  0.0000E+00
  0.0000E+00
  0.0000E+00
  0.0000E+00
  0.0000E+00
  0.0000E+00
  0.0000E+00
  0.0000E+00
  0.0000E+00
  0.0000E+00
  0.0000E+00
  0.0000E+00
  0.0000E+00
  0.0000E+00
  0.0000E+00
  0.0000E+00
  0.0000E+00
  0.0000E+00
  0.0000E+00
  0.0000E+00
  0.0000E+00
  0.0000E+00
  0.0000E+00
  0.0000E+00
  0.0000E+00
  0.0000E+00
  0.0000E+00
  0.0000E+00
  0.0000E+00
  0.0000E+00
  0.0000E+00
  0.0000E+00
  0.0000E+00
  0.0000E+00
  0.0000E+00
  0.0000E+00
  0.0000E+00
  0.0000E+00
  0.0000E+00
  0.0000E+00
  0.0000E+00
  0.0000E+00
  0.0000E+00
  0.0000E+00
  0.0000E+00
  0.0000E+00
  0.0000E+00
  0.0000E+00
  0.0000E+00
  0.0000E+00
  0.0000E+00
  0.0000E+00
  0.0000E+00
  0.0000E+00
  0.0000E+00
  0.0000E+00
  0.0000E+00
  0.0000E+00
  0.0000E+00
  0.0000E+00
  0.0000E+00
  0.0000E+00
  0.0000E+00
  0.0000E+00
  0.0000E+00
  0.0000E+00
  0.0000E+00
  0.0000E+00
  0.0000E+00
  0.0000E+00
  0.0000E+00
  0.0000E+00
  0.0000E+00
  0.0000E+00
  0.0000E+00
  0.0000E+00
  0.0000E+00
  0.0000E+00
  0.0000E+00
  0.0000E+00
  0.0000E+00
  0.0000E+00
  0.0000E+00
  0.0000E+00
  0.0000E+00
  0.0000E+00
  0.0000E+00
  0.0000E+00
  0.0000E+00
  0.0000E+00
  0.0000E+00
  0.0000E+00
  0.0000E+00
  0.0000E+00
  0.0000E+00
  0.0000E+00
  0.0000E+00
  0.0000E+00
  0.0000E+00
  0.0000E+00
  0.0000E+00
  0.0000E+00
  0.0000E+00
  0.0000E+00
  0.0000E+00
  0.0000E+00
  0.0000E+00
  0.0000E+00
  0.0000E+00
  0.0000E+00
  0.0000E+00
  0.0000E+00
  0.0000E+00
  0.0000E+00
  0.0000E+00
  0.0000E+00
  0.0000E+00
  0.0000E+00
  0.0000E+00
  0.0000E+00
  0.0000E+00
  0.0000E+00
  0.0000E+00
  0.0000E+00
  0.0000E+00
  0.0000E+00
  0.0000E+00
  0.0000E+00
  0.0000E+00
  0.0000E+00
  0.0000E+00
  0.0000E+00
  0.0000E+00
  0.0000E+00
  0.0000E+00
  0.0000E+00
  0.0000E+00
  0.0000E+00
  0.0000E+00
  0.0000E+00
  0.0000E+00
  0.0000E+00
  0.0000E+00
  0.0000E+00
  0.0000E+00
  0.0000E+00
  0.0000E+00
  0.0000E+00
  0.0000E+00
  0.0000E+00
  0.0000E+00
  0.0000E+00
  0.0000E+00
  0.0000E+00
  0.0000E+00
  0.0000E+00
  0.0000E+00
  0.0000E+00
  0.0000E+00
  0.0000E+00
  0.0000E+00
  0.0000E+00
  0.0000E+00
  0.0000E+00
  0.0000E+00
  0.0000E+00
  0.0000E+00
  0.0000E+00
  0.0000E+00
  0.0000E+00
  0.0000E+00
  0.0000E+00
  0.0000E+00
  0.0000E+00
  0.0000E+00
  0.0000E+00
  0.0000E+00
  0.0000E+00
  0.0000E+00
  0.0000E+00
  0.0000E+00
  0.0000E+00
  0.0000E+00
  0.0000E+00
  0.0000E+00
  0.0000E+00
  0.0000E+00
  0.0000E+00
  0.0000E+00
  0.0000E+00
  0.0000E+00
  0.0000E+00
  0.0000E+00
  0.0000E+00
  0.0000E+00
  0.0000E+00
  0.0000E+00
  0.0000E+00
  0.0000E+00
  0.0000E+00
  0.0000E+00
  0.0000E+00
  0.0000E+00
  0.0000E+00
  0.0000E+00
  0.0000E+00
  0.0000E+00
  0.0000E+00
  0.0000E+00
  0.0000E+00
  0.0000E+00
  0.0000E+00
  0.0000E+00
  0.0000E+00
  0.0000E+00
  0.0000E+00
  0.0000E+00
  0.0000E+00
  0.0000E+00
  0.0000E+00
  0.0000E+00
  0.0000E+00
  0.0000E+00
  0.0000E+00
  0.0000E+00
  0.0000E+00
  0.0000E+00
  0.0000E+00
  0.0000E+00
  0.0000E+00
  0.0000E+00
  0.0000E+00
  0.0000E+00
  0.0000E+00
  0.0000E+00
  0.0000E+00
  0.0000E+00
  0.0000E+00
  0.0000E+00
  0.0000E+00
  0.0000E+00
  0.0000E+00
  0.0000E+00
  0.0000E+00
  0.0000E+00
  0.0000E+00
  0.0000E+00
  0.0000E+00
  0.0000E+00
  0.0000E+00
  0.0000E+00
  0.0000E+00
  0.0000E+00
  0.0000E+00
  0.0000E+00
  0.0000E+00
  0.0000E+00
  0.0000E+00
  0.0000E+00
  0.0000E+00
  0.0000E+00
  0.0000E+00
  0.0000E+00
  0.0000E+00
  0.0000E+00
  0.0000E+00
  0.0000E+00
  0.0000E+00
  0.0000E+00
  0.0000E+00
  0.0000E+00
  0.0000E+00
  0.0000E+00
  0.0000E+00
  0.0000E+00
  0.0000E+00
  0.0000E+00
  0.0000E+00
  0.0000E+00
  0.0000E+00
  0.0000E+00
  0.0000E+00
  0.0000E+00
  0.0000E+00
  0.0000E+00
  0.0000E+00
  0.0000E+00
  0.0000E+00
  0.0000E+00
  0.0000E+00
  0.0000E+00
  0.0000E+00
  0.0000E+00
  0.0000E+00
  0.0000E+00
  0.0000E+00
  0.0000E+00
  0.0000E+00
  0.0000E+00
  0.0000E+00
  0.0000E+00
  0.0000E+00
  0.0000E+00
  0.0000E+00
  0.0000E+00
  0.0000E+00
  0.0000E+00
  0.0000E+00
  0.0000E+00
  0.0000E+00
  0.0000E+00
  0.0000E+00
  0.0000E+00
  0.0000E+00
  0.0000E+00
  0.0000E+00
  0.0000E+00
  0.0000E+00
  0.0000E+00
  0.0000E+00
  0.0000E+00
  0.0000E+00
  0.0000E+00
  0.0000E+00
  0.0000E+00
  0.0000E+00
  0.0000E+00
  0.0000E+00
  0.0000E+00
  0.0000E+00
  0.0000E+00
  0.0000E+00
  0.0000E+00
  0.0000E+00
  0.0000E+00
  0.0000E+00
  0.0000E+00
  0.0000E+00
  0.0000E+00
  0.0000E+00
  0.0000E+00
  0.0000E+00
  0.0000E+00
  0.0000E+00
  0.0000E+00
  0.0000E+00
  0.0000E+00
  0.0000E+00
  0.0000E+00
  0.0000E+00
  0.0000E+00
  0.0000E+00
  0.0000E+00
  0.0000E+00
  0.0000E+00
  0.0000E+00
  0.0000E+00
  0.0000E+00
  0.0000E+00
  0.0000E+00
  0.0000E+00
  0.0000E+00
  0.0000E+00
  0.0000E+00
  0.0000E+00
  0.0000E+00
  0.0000E+00
  0.0000E+00
  0.0000E+00
  0.0000E+00
  0.0000E+00
  0.0000E+00
  0.0000E+00
  0.0000E+00
  0.0000E+00
  0.0000E+00
  0.0000E+00
  0.0000E+00
  0.0000E+00
  0.0000E+00
  0.0000E+00
  0.0000E+00
  0.0000E+00
  0.0000E+00
  0.0000E+00
  0.0000E+00
  0.0000E+00
  0.0000E+00
  0.0000E+00
  0.0000E+00
  0.0000E+00
  0.0000E+00
  0.0000E+00
  0.0000E+00
  0.0000E+00
  0.0000E+00
  0.0000E+00
  0.0000E+00
  0.0000E+00
  0.0000E+00
  0.0000E+00
  0.0000E+00
  0.0000E+00
  0.0000E+00
  0.0000E+00
  0.0000E+00
  0.0000E+00
  0.0000E+00
  0.0000E+00
  0.0000E+00
  0.0000E+00
  0.0000E+00
  0.0000E+00
  0.0000E+00
  0.0000E+00
  0.0000E+00
  0.0000E+00
  0.0000E+00
  0.0000E+00
  0.0000E+00
  0.0000E+00
  0.0000E+00
  0.0000E+00
  0.0000E+00
  0.0000E+00
  0.0000E+00
  0.0000E+00
  0.0000E+00
  0.0000E+00
  0.0000E+00
  0.0000E+00
  0.0000E+00
  0.0000E+00
  0.0000E+00
  0.0000E+00
  0.0000E+00
  0.0000E+00
  0.0000E+00
  0.0000E+00
  0.0000E+00
  0.0000E+00
  0.0000E+00
  0.0000E+00
  0.0000E+00
  0.0000E+00
  0.0000E+00
  0.0000E+00
  0.0000E+00
  0.0000E+00
  0.0000E+00
  0.0000E+00
  0.0000E+00
  0.0000E+00
  0.0000E+00
  0.0000E+00
  0.0000E+00
  0.0000E+00
  0.0000E+00
  0.0000E+00
  0.0000E+00
  0.0000E+00
  0.0000E+00
  0.0000E+00
  0.0000E+00
  0.0000E+00
  0.0000E+00
  0.0000E+00
  0.0000E+00
  0.0000E+00
  0.0000E+00
  0.0000E+00
  0.0000E+00
  0.0000E+00
  0.0000E+00
  0.0000E+00
  0.0000E+00
  0.0000E+00
  0.0000E+00
  0.0000E+00
  0.0000E+00
  0.0000E+00
  0.0000E+00
  0.0000E+00
  0.0000E+00
  0.0000E+00
  0.0000E+00
  0.0000E+00
  0.0000E+00
  0.0000E+00
  0.0000E+00
  0.0000E+00
  0.0000E+00
  0.0000E+00
  0.0000E+00
  0.0000E+00
  0.0000E+00
  0.0000E+00
  0.0000E+00
  0.0000E+00
  0.0000E+00
  0.0000E+00
  0.0000E+00
  0.0000E+00
  0.0000E+00
  0.0000E+00
  0.0000E+00
  0.0000E+00
  0.0000E+00
  0.0000E+00
  0.0000E+00
  0.0000E+00
  0.0000E+00
  0.0000E+00
  0.0000E+00
  0.0000E+00
  0.0000E+00
  0.0000E+00
  0.0000E+00
  0.0000E+00
  0.0000E+00
  0.0000E+00
  0.0000E+00
  0.0000E+00
  0.0000E+00
  0.0000E+00
  0.0000E+00
  0.0000E+00
  0.0000E+00
  0.0000E+00
  0.0000E+00
  0.0000E+00
  0.0000E+00
  0.0000E+00
  0.0000E+00
  0.0000E+00
  0.0000E+00
  0.0000E+00
  0.0000E+00
  0.0000E+00
  0.0000E+00
  0.0000E+00
  0.0000E+00
  0.0000E+00
  0.0000E+00
  0.0000E+00
  0.0000E+00
  0.0000E+00
  0.0000E+00
  0.0000E+00
  0.0000E+00
  0.0000E+00
  0.0000E+00
  0.0000E+00
  0.0000E+00
  0.0000E+00
  0.0000E+00
  0.0000E+00
  0.0000E+00
  0.0000E+00
  0.0000E+00
  0.0000E+00
  0.0000E+00
  0.0000E+00
  0.0000E+00
  0.0000E+00
  0.0000E+00
  0.0000E+00
  0.0000E+00
  0.0000E+00
  0.0000E+00
  0.0000E+00
  0.0000E+00
  0.0000E+00
  0.0000E+00
  0.0000E+00
  0.0000E+00
  0.0000E+00
  0.0000E+00
  0.0000E+00
  0.0000E+00
  0.0000E+00
  0.0000E+00
  0.0000E+00
  0.0000E+00
  0.0000E+00
  0.0000E+00
  0.0000E+00
  0.0000E+00
  0.0000E+00
  0.0000E+00
  0.0000E+00
  0.0000E+00
  0.0000E+00
  0.0000E+00
  0.0000E+00
  0.0000E+00
  0.0000E+00
  0.0000E+00
  0.0000E+00
  0.0000E+00
  0.0000E+00
  0.0000E+00
  0.0000E+00
  0.0000E+00
  0.0000E+00
  0.0000E+00
  0.0000E+00
  0.0000E+00
  0.0000E+00
  0.0000E+00
  0.0000E+00
  0.0000E+00
  0.0000E+00
  0.0000E+00
  0.0000E+00
  0.0000E+00
  0.0000E+00
  0.0000E+00
  0.0000E+00
  0.0000E+00
  0.0000E+00
  0.0000E+00
  0.0000E+00
  0.0000E+00
  0.0000E+00
  0.0000E+00
  0.0000E+00
  0.0000E+00
  0.0000E+00
  0.0000E+00
  0.0000E+00
  0.0000E+00
  0.0000E+00
  0.0000E+00
  0.0000E+00
  0.0000E+00
  0.0000E+00
  0.0000E+00
  0.0000E+00
  0.0000E+00
  0.0000E+00
  0.0000E+00
  0.0000E+00
  0.0000E+00
  0.0000E+00
  0.0000E+00
  0.0000E+00
  0.0000E+00
  0.0000E+00
  0.0000E+00
  0.0000E+00
  0.0000E+00
  0.0000E+00
  0.0000E+00
  0.0000E+00
  0.0000E+00
  0.0000E+00
  0.0000E+00
  0.0000E+00
  0.0000E+00
  0.0000E+00
  0.0000E+00
  0.0000E+00
  0.0000E+00
  0.0000E+00
  0.0000E+00
  0.0000E+00
  0.0000E+00
  0.0000E+00
  0.0000E+00
  0.0000E+00
  0.0000E+00
  0.0000E+00
  0.0000E+00
  0.0000E+00
  0.0000E+00
  0.0000E+00
  0.0000E+00
  0.0000E+00
  0.0000E+00
  0.0000E+00
  0.0000E+00
  0.0000E+00
  0.0000E+00
  0.0000E+00
  0.0000E+00
  0.0000E+00
  0.0000E+00
  0.0000E+00
  0.0000E+00
  0.0000E+00
  0.0000E+00
  0.0000E+00
  0.0000E+00
  0.0000E+00
  0.0000E+00
  0.0000E+00
  0.0000E+00
  0.0000E+00
  0.0000E+00
  0.0000E+00
  0.0000E+00
  0.0000E+00
  0.0000E+00
  0.0000E+00
  0.0000E+00
  0.0000E+00
  0.0000E+00
  0.0000E+00
  0.0000E+00
  0.0000E+00
  0.0000E+00
  0.0000E+00
  0.0000E+00
  0.0000E+00
  0.0000E+00
  0.0000E+00
  0.0000E+00
  0.0000E+00
  0.0000E+00
  0.0000E+00
  0.0000E+00
  0.0000E+00
  0.0000E+00
  0.0000E+00
  0.0000E+00
  0.0000E+00
  0.0000E+00
  0.0000E+00
  0.0000E+00
  0.0000E+00
  0.0000E+00
  0.0000E+00
  0.0000E+00
  0.0000E+00
  0.0000E+00
  0.0000E+00
  0.0000E+00
  0.0000E+00
  0.0000E+00
  0.0000E+00
  0.0000E+00
  0.0000E+00
  0.0000E+00
  0.0000E+00
  0.0000E+00
  0.0000E+00
  0.0000E+00
  0.0000E+00
  0.0000E+00
  0.0000E+00
  0.0000E+00
  0.0000E+00
  0.0000E+00
  0.0000E+00
  0.0000E+00
  0.0000E+00
  0.0000E+00
  0.0000E+00
  0.0000E+00
  0.0000E+00
  0.0000E+00
  0.0000E+00
  0.0000E+00
  0.0000E+00
  0.0000E+00
  0.0000E+00
  0.0000E+00
  0.0000E+00
  0.0000E+00
  0.0000E+00
  0.0000E+00
  0.0000E+00
  0.0000E+00
  0.0000E+00
  0.0000E+00
  0.0000E+00
  0.0000E+00
  0.0000E+00
  0.0000E+00
  0.0000E+00
  0.0000E+00
  0.0000E+00
  0.0000E+00
  0.0000E+00
  0.0000E+00
  0.0000E+00
  0.0000E+00
  0.0000E+00
  0.0000E+00
  0.0000E+00
  0.0000E+00
  0.0000E+00
  0.0000E+00
  0.0000E+00
  0.0000E+00
  0.0000E+00
  0.0000E+00
  0.0000E+00
  0.0000E+00
  0.0000E+00
  0.0000E+00
  0.0000E+00
  0.0000E+00
  0.0000E+00
  0.0000E+00
  0.0000E+00
  0.0000E+00
  0.0000E+00
  0.0000E+00
  0.0000E+00
  0.0000E+00
  0.0000E+00
  0.0000E+00
  0.0000E+00
  0.0000E+00
  0.0000E+00
  0.0000E+00
  0.0000E+00
  0.0000E+00
  0.0000E+00
  0.0000E+00
  0.0000E+00
