Scalar VONMISES under Static for nodeset
1872
   0.0000E+00
  2.4000E+08
  2.4000E+08
  2.4000E+08
  2.4000E+08
  2.4000E+08
  2.4000E+08
  2.4000E+08
  2.4000E+08
  2.4000E+08
  2.4000E+08
  2.4000E+08
  2.4000E+08
  2.4000E+08
  2.4000E+08
  2.4000E+08
  2.4000E+08
  2.4000E+08
  2.4000E+08
  2.4000E+08
  2.4000E+08
  2.4000E+08
  2.4000E+08
  2.4000E+08
  2.4000E+08
  2.4000E+08
  2.4000E+08
  2.4000E+08
  2.4000E+08
  2.4000E+08
  2.4000E+08
  2.4000E+08
  2.4000E+08
  2.4000E+08
  2.4000E+08
  2.4000E+08
  2.4000E+08
  2.4000E+08
  2.4000E+08
  2.4000E+08
  2.4000E+08
  2.4000E+08
  2.4000E+08
  2.4000E+08
  2.4000E+08
  2.4000E+08
  2.4000E+08
  2.4000E+08
  2.4000E+08
  2.4000E+08
  2.4000E+08
  2.4000E+08
  2.4000E+08
  2.4000E+08
  2.4000E+08
  2.4000E+08
  2.4000E+08
  2.4000E+08
  2.4000E+08
  2.4000E+08
  2.4000E+08
  2.4000E+08
  2.4000E+08
  2.4000E+08
  2.4000E+08
  2.4000E+08
  2.4000E+08
  2.4000E+08
  2.4000E+08
  2.4000E+08
  2.4000E+08
  2.4000E+08
  2.4000E+08
  2.4000E+08
  2.4000E+08
  2.4000E+08
  2.4000E+08
  2.4000E+08
  2.4000E+08
  2.4000E+08
  2.4000E+08
  2.4000E+08
  2.4000E+08
  2.4000E+08
  2.4000E+08
  2.4000E+08
  2.4000E+08
  2.4000E+08
  2.4000E+08
  2.4000E+08
  2.4000E+08
  2.4000E+08
  2.4000E+08
  2.4000E+08
  2.4000E+08
  2.4000E+08
  2.4000E+08
  2.4000E+08
  2.4000E+08
  2.4000E+08
  2.4000E+08
  2.4000E+08
  2.4000E+08
  2.4000E+08
  2.4000E+08
  2.4000E+08
  2.4000E+08
  2.4000E+08
  2.4000E+08
  2.4000E+08
  2.4000E+08
  2.4000E+08
  2.4000E+08
  2.4000E+08
  2.4000E+08
  2.4000E+08
  2.4000E+08
  2.4000E+08
  2.4000E+08
  2.4000E+08
  2.4000E+08
  2.4000E+08
  2.4000E+08
  2.4000E+08
  2.4000E+08
  2.4000E+08
  2.4000E+08
  2.4000E+08
  2.4000E+08
  2.4000E+08
  2.4000E+08
  2.4000E+08
  2.4000E+08
  2.4000E+08
  2.4000E+08
  2.4000E+08
  2.4000E+08
  2.4000E+08
  2.4000E+08
  2.4000E+08
  2.4000E+08
  2.4000E+08
  2.4000E+08
  2.4000E+08
  2.4000E+08
  2.4000E+08
  2.4000E+08
  2.4000E+08
  2.4000E+08
  2.4000E+08
  2.4000E+08
  2.4000E+08
  2.4000E+08
  2.4000E+08
  2.4000E+08
  2.4000E+08
  2.4000E+08
  2.4000E+08
  2.4000E+08
  2.4000E+08
  2.4000E+08
  2.4000E+08
  2.4000E+08
  2.4000E+08
  2.4000E+08
  2.4000E+08
  2.4000E+08
  2.4000E+08
  2.4000E+08
  2.4000E+08
  2.4000E+08
  2.4000E+08
  2.4000E+08
  2.4000E+08
  2.4000E+08
  2.4000E+08
  2.4000E+08
  2.4000E+08
  2.4000E+08
  2.4000E+08
  2.4000E+08
  2.4000E+08
  2.4000E+08
  2.4000E+08
  2.4000E+08
  2.4000E+08
  2.4000E+08
  2.4000E+08
  2.4000E+08
  2.4000E+08
  2.4000E+08
  2.4000E+08
  2.4000E+08
  2.4000E+08
  2.4000E+08
  2.4000E+08
  2.4000E+08
  2.4000E+08
  2.4000E+08
  2.4000E+08
  2.4000E+08
  2.4000E+08
  2.4000E+08
  2.4000E+08
  2.4000E+08
  2.4000E+08
  2.4000E+08
  2.4000E+08
  2.4000E+08
  2.4000E+08
  2.4000E+08
  2.4000E+08
  2.4000E+08
  2.4000E+08
  2.4000E+08
  2.4000E+08
  2.4000E+08
  2.4000E+08
  2.4000E+08
  2.4000E+08
  2.4000E+08
  2.4000E+08
  2.4000E+08
  2.4000E+08
  2.4000E+08
  2.4000E+08
  2.4000E+08
  2.4000E+08
  2.4000E+08
  2.4000E+08
  2.4000E+08
  2.4000E+08
  2.4000E+08
  2.4000E+08
  2.4000E+08
  2.4000E+08
  2.4000E+08
  2.4000E+08
  2.4000E+08
  2.4000E+08
  2.4000E+08
  2.4000E+08
  2.4000E+08
  2.4000E+08
  2.4000E+08
  2.4000E+08
  2.4000E+08
  2.4000E+08
  2.4000E+08
  2.4000E+08
  2.4000E+08
  2.4000E+08
  2.4000E+08
  2.4000E+08
  2.4000E+08
  2.4000E+08
  2.4000E+08
  2.4000E+08
  2.4000E+08
  2.4000E+08
  2.4000E+08
  2.4000E+08
  2.4000E+08
  2.4000E+08
  2.4000E+08
  2.4000E+08
  2.4000E+08
  2.4000E+08
  2.4000E+08
  2.4000E+08
  2.4000E+08
  2.4000E+08
  2.4000E+08
  2.4000E+08
  2.4000E+08
  2.4000E+08
  2.4000E+08
  2.4000E+08
  2.4000E+08
  2.4000E+08
  2.4000E+08
  2.4000E+08
  2.4000E+08
  2.4000E+08
  2.4000E+08
  2.4001E+08
  2.4000E+08
  2.4000E+08
  2.4000E+08
  2.4000E+08
  2.4000E+08
  2.4000E+08
  2.4000E+08
  2.4000E+08
  2.4000E+08
  2.4000E+08
  2.4000E+08
  2.4000E+08
  2.4000E+08
  2.4000E+08
  2.4000E+08
  2.4000E+08
  2.4000E+08
  2.4000E+08
  2.4000E+08
  2.4000E+08
  2.4000E+08
  2.4000E+08
  2.4000E+08
  2.4000E+08
  2.4000E+08
  2.4000E+08
  2.4000E+08
  2.4000E+08
  2.4000E+08
  2.4000E+08
  2.4000E+08
  2.4000E+08
  2.4000E+08
  2.4000E+08
  2.4000E+08
  2.4000E+08
  2.4000E+08
  2.4000E+08
  2.4000E+08
  2.4000E+08
  2.4000E+08
  2.4000E+08
  2.4000E+08
  2.4000E+08
  2.4000E+08
  2.4000E+08
  2.4000E+08
  2.4000E+08
  2.4000E+08
  2.4000E+08
  2.4000E+08
  2.3999E+08
  2.4000E+08
  2.4000E+08
  2.4000E+08
  2.4000E+08
  2.4000E+08
  2.4000E+08
  2.4000E+08
  2.4000E+08
  2.4000E+08
  2.4000E+08
  2.4000E+08
  2.4000E+08
  2.4000E+08
  2.4000E+08
  2.4000E+08
  2.4000E+08
  2.4000E+08
  2.4000E+08
  2.4000E+08
  2.4000E+08
  2.4000E+08
  2.4000E+08
  2.4000E+08
  2.4000E+08
  2.4000E+08
  2.4000E+08
  2.4000E+08
  2.4000E+08
  2.4000E+08
  2.4000E+08
  2.4000E+08
  2.4000E+08
  2.4000E+08
  2.4000E+08
  2.4000E+08
  2.4000E+08
  2.4000E+08
  2.4000E+08
  2.4000E+08
  2.4000E+08
  2.4000E+08
  2.4000E+08
  2.4000E+08
  2.4000E+08
  2.4000E+08
  2.4000E+08
  2.4000E+08
  2.4000E+08
  2.4000E+08
  2.4000E+08
  2.4000E+08
  2.4000E+08
  2.4000E+08
  2.4000E+08
  2.4000E+08
  2.4000E+08
  2.4000E+08
  2.4000E+08
  2.4000E+08
  2.4000E+08
  2.4000E+08
  2.4000E+08
  2.4000E+08
  2.4000E+08
  2.4000E+08
  2.4000E+08
  2.4000E+08
  2.4000E+08
  2.4000E+08
  2.4000E+08
  2.4000E+08
  2.4000E+08
  2.4000E+08
  2.4000E+08
  2.4000E+08
  2.4000E+08
  2.4000E+08
  2.4000E+08
  2.4000E+08
  2.4000E+08
  2.4000E+08
  2.4000E+08
  2.4000E+08
  2.4000E+08
  2.4000E+08
  2.4000E+08
  2.4000E+08
  2.4000E+08
  2.4000E+08
  2.4000E+08
  2.4000E+08
  2.4000E+08
  2.4000E+08
  2.4000E+08
  2.4000E+08
  2.4000E+08
  2.4000E+08
  2.4000E+08
  2.4000E+08
  2.4000E+08
  2.4000E+08
  2.4000E+08
  2.4000E+08
  2.4000E+08
  2.4000E+08
  2.4000E+08
  2.4000E+08
  2.4000E+08
  2.4000E+08
  2.4000E+08
  2.4000E+08
  2.4000E+08
  2.4000E+08
  2.4000E+08
  2.4000E+08
  2.4000E+08
  2.4000E+08
  2.4000E+08
  2.4000E+08
  2.4000E+08
  2.4000E+08
  2.4000E+08
  2.4000E+08
  2.4000E+08
  2.4000E+08
  2.4000E+08
  2.4000E+08
  2.4000E+08
  2.4000E+08
  2.4000E+08
  2.4000E+08
  2.4000E+08
  2.4000E+08
  2.4000E+08
  2.4000E+08
  2.4000E+08
  2.4000E+08
  2.4000E+08
  2.4000E+08
  2.4000E+08
  2.4000E+08
  2.4000E+08
  2.4000E+08
  2.4000E+08
  2.4000E+08
  2.4000E+08
  2.4000E+08
  2.4000E+08
  2.4000E+08
  2.4000E+08
  2.4000E+08
  2.4000E+08
  2.4000E+08
  2.4000E+08
  2.4000E+08
  2.3999E+08
  2.4000E+08
  2.4000E+08
  2.4000E+08
  2.4000E+08
  2.4000E+08
  2.4000E+08
  2.4000E+08
  2.4000E+08
  2.4000E+08
  2.4000E+08
  2.4000E+08
  2.4000E+08
  2.4000E+08
  2.4000E+08
  2.4000E+08
  2.4000E+08
  2.4000E+08
  2.4000E+08
  2.4000E+08
  2.4000E+08
  2.4000E+08
  2.4000E+08
  2.4000E+08
  2.4000E+08
  2.4000E+08
  2.4000E+08
  2.4000E+08
  2.4000E+08
  2.4000E+08
  2.4000E+08
  2.4000E+08
  2.4000E+08
  2.4000E+08
  2.4000E+08
  2.4000E+08
  2.4000E+08
  2.4000E+08
  2.4000E+08
  2.4000E+08
  2.4000E+08
  2.4000E+08
  2.4000E+08
  2.4000E+08
  2.4000E+08
  2.4000E+08
  2.4000E+08
  2.4000E+08
  2.4000E+08
  2.4000E+08
  2.4000E+08
  2.4000E+08
  2.4000E+08
  2.4000E+08
  2.4000E+08
  2.4000E+08
  2.4000E+08
  2.4000E+08
  2.4000E+08
  2.4000E+08
  2.4000E+08
  2.4000E+08
  2.4000E+08
  2.4000E+08
  2.4000E+08
  2.4000E+08
  2.4000E+08
  2.4000E+08
  2.4000E+08
  2.4000E+08
  2.4000E+08
  2.4000E+08
  2.4000E+08
  2.4000E+08
  2.4000E+08
  2.4000E+08
  2.4000E+08
  2.4000E+08
  2.4000E+08
  2.4000E+08
  2.4000E+08
  2.4000E+08
  2.4000E+08
  2.4000E+08
  2.4000E+08
  2.4000E+08
  2.4000E+08
  2.4000E+08
  2.4000E+08
  2.4000E+08
  2.4000E+08
  2.4000E+08
  2.4000E+08
  2.4000E+08
  2.4000E+08
  2.4000E+08
  2.4000E+08
  2.4000E+08
  2.4000E+08
  2.4000E+08
  2.4000E+08
  2.4000E+08
  2.4000E+08
  2.4000E+08
  2.4000E+08
  2.4000E+08
  2.4000E+08
  2.4000E+08
  2.4000E+08
  2.4000E+08
  2.4000E+08
  2.4000E+08
  2.4000E+08
  2.4000E+08
  2.4000E+08
  2.4000E+08
  2.4000E+08
  2.4000E+08
  2.4000E+08
  2.4000E+08
  2.4000E+08
  2.4000E+08
  2.4000E+08
  2.4000E+08
  2.4000E+08
  2.4000E+08
  2.4000E+08
  2.4000E+08
  2.4000E+08
  2.4000E+08
  2.4000E+08
  2.4000E+08
  2.4000E+08
  2.4000E+08
  2.4000E+08
  2.4000E+08
  2.4000E+08
  2.4000E+08
  2.4000E+08
  2.4000E+08
  2.4000E+08
  2.4000E+08
  2.4000E+08
  2.4000E+08
  2.4000E+08
  2.4000E+08
  2.4000E+08
  2.4000E+08
  2.4000E+08
  2.4000E+08
  2.4000E+08
  2.4000E+08
  2.4000E+08
  2.4000E+08
  2.4000E+08
  2.4000E+08
  2.4000E+08
  2.4000E+08
  2.4000E+08
  2.4000E+08
  2.4000E+08
  2.4000E+08
  2.4000E+08
  2.4000E+08
  2.4000E+08
  2.4000E+08
  2.4000E+08
  2.4000E+08
  2.4000E+08
  2.4000E+08
  2.4000E+08
  2.4000E+08
  2.4000E+08
  2.4000E+08
  2.4000E+08
  2.4000E+08
  2.4000E+08
  2.4000E+08
  2.4000E+08
  2.4000E+08
  2.4000E+08
  2.4000E+08
  2.4000E+08
  2.4000E+08
  2.4000E+08
  2.4000E+08
  2.4000E+08
  2.4000E+08
  2.4000E+08
  2.4000E+08
  2.4000E+08
  2.4000E+08
  2.4000E+08
  2.4000E+08
  2.4000E+08
  2.4000E+08
  2.4000E+08
  2.4000E+08
  2.4000E+08
  2.4000E+08
  2.4000E+08
  2.4000E+08
  2.4000E+08
  2.4000E+08
  2.4000E+08
  2.4000E+08
  2.4000E+08
  2.4000E+08
  2.4000E+08
  2.4000E+08
  2.4000E+08
  2.4000E+08
  2.4000E+08
  2.4000E+08
  2.4000E+08
  2.4000E+08
  2.4000E+08
  2.4000E+08
  2.4000E+08
  2.4000E+08
  2.4000E+08
  2.4000E+08
  2.4000E+08
  2.4000E+08
  2.4000E+08
  2.4000E+08
  2.4000E+08
  2.4000E+08
  2.4000E+08
  2.4000E+08
  2.4000E+08
  2.4000E+08
  2.4000E+08
  2.4000E+08
  2.4000E+08
  2.4000E+08
  2.4000E+08
  2.4000E+08
  2.4000E+08
  2.4000E+08
  2.4000E+08
  2.4000E+08
  2.4000E+08
  2.4000E+08
  2.4000E+08
  2.4000E+08
  2.4000E+08
  2.4000E+08
  2.4000E+08
  2.4000E+08
  2.4000E+08
  2.4000E+08
  2.4000E+08
  2.4000E+08
  2.4000E+08
  2.4000E+08
  2.4000E+08
  2.4000E+08
  2.4000E+08
  2.4000E+08
  2.4000E+08
  2.4000E+08
  2.4000E+08
  2.4000E+08
  2.4000E+08
  2.4000E+08
  2.4000E+08
  2.4000E+08
  2.4000E+08
  2.4000E+08
  2.4000E+08
  2.4000E+08
  2.4000E+08
  2.4000E+08
  2.4000E+08
  2.4000E+08
  2.4000E+08
  2.4000E+08
  2.4000E+08
  2.4000E+08
  2.4000E+08
  2.4000E+08
  2.4000E+08
  2.4000E+08
  2.4000E+08
  2.4000E+08
  2.4000E+08
  2.4000E+08
  2.4000E+08
  2.4000E+08
  2.4000E+08
  2.4000E+08
  2.4000E+08
  2.4000E+08
  2.4000E+08
  2.4000E+08
  2.4000E+08
  2.4000E+08
  2.4000E+08
  2.4000E+08
  2.4000E+08
  2.4000E+08
  2.4000E+08
  2.4000E+08
  2.4000E+08
  2.4000E+08
  2.4000E+08
  2.4000E+08
  2.3999E+08
  2.4000E+08
  2.4000E+08
  2.4000E+08
  2.4001E+08
  2.4000E+08
  2.4000E+08
  2.4000E+08
  2.3999E+08
  2.4000E+08
  2.4000E+08
  2.4000E+08
  2.4000E+08
  2.4000E+08
  2.4000E+08
  2.4000E+08
  2.4000E+08
  2.4000E+08
  2.4000E+08
  2.4000E+08
  2.4000E+08
  2.4000E+08
  2.4000E+08
  2.4000E+08
  2.4000E+08
  2.4000E+08
  2.4000E+08
  2.4000E+08
  2.4000E+08
  2.4000E+08
  2.4000E+08
  2.4000E+08
  2.4000E+08
  2.4000E+08
  2.4000E+08
  2.4000E+08
  2.4000E+08
  2.4000E+08
  2.4000E+08
  2.4000E+08
  2.4000E+08
  2.4000E+08
  2.4000E+08
  2.4000E+08
  2.3999E+08
  2.4000E+08
  2.4000E+08
  2.4000E+08
  2.4000E+08
  2.4000E+08
  2.4000E+08
  2.4000E+08
  2.4000E+08
  2.4000E+08
  2.4000E+08
  2.4000E+08
  2.4000E+08
  2.4000E+08
  2.4000E+08
  2.4000E+08
  2.4000E+08
  2.4000E+08
  2.4000E+08
  2.4000E+08
  2.4000E+08
  2.4000E+08
  2.4000E+08
  2.4000E+08
  2.4000E+08
  2.4000E+08
  2.3999E+08
  2.4000E+08
  2.4000E+08
  2.4000E+08
  2.4000E+08
  2.4000E+08
  2.4000E+08
  2.4000E+08
  2.4000E+08
  2.4000E+08
  2.4000E+08
  2.4000E+08
  2.4000E+08
  2.4000E+08
  2.4000E+08
  2.4000E+08
  2.4000E+08
  2.4000E+08
  2.4000E+08
  2.4000E+08
  2.4000E+08
  2.4000E+08
  2.4000E+08
  2.4000E+08
  2.4000E+08
  2.4000E+08
  2.4000E+08
  2.4000E+08
  2.4000E+08
  2.4000E+08
  2.4000E+08
  2.4000E+08
  2.4000E+08
  2.4000E+08
  2.4000E+08
  2.4000E+08
  2.4000E+08
  2.4000E+08
  2.4000E+08
  2.4000E+08
  2.4000E+08
  2.4000E+08
  2.4000E+08
  2.4000E+08
  2.4000E+08
  2.4000E+08
  2.4000E+08
  2.4000E+08
  2.4000E+08
  2.4000E+08
  2.4000E+08
  2.4000E+08
  2.4000E+08
  2.4000E+08
  2.4000E+08
  2.4000E+08
  2.4000E+08
  2.4000E+08
  2.4000E+08
  2.4000E+08
  2.4000E+08
  2.4000E+08
  2.4000E+08
  2.4000E+08
  2.4000E+08
  2.4000E+08
  2.0000E+08
  2.0000E+08
  2.0000E+08
  2.0000E+08
  2.0000E+08
  2.0000E+08
  2.0000E+08
  2.0000E+08
  2.0000E+08
  2.0000E+08
  2.0000E+08
  2.0000E+08
  2.0000E+08
  2.0000E+08
  2.0000E+08
  2.0000E+08
  2.0000E+08
  2.0000E+08
  2.0000E+08
  2.0000E+08
  2.0000E+08
  2.0000E+08
  2.0000E+08
  2.0000E+08
  2.0000E+08
  2.0000E+08
  2.0000E+08
  2.0000E+08
  2.0000E+08
  2.0000E+08
  2.0000E+08
  2.0000E+08
  2.0000E+08
  2.0000E+08
  2.0000E+08
  2.0000E+08
  2.0000E+08
  2.0000E+08
  2.0000E+08
  2.0000E+08
  2.0000E+08
  2.0000E+08
  2.0000E+08
  2.0000E+08
  2.0000E+08
  2.0000E+08
  2.0000E+08
  2.0000E+08
  2.0000E+08
  2.0000E+08
  2.0000E+08
  2.0000E+08
  2.0000E+08
  2.0000E+08
  2.0000E+08
  2.0000E+08
  2.0000E+08
  2.0000E+08
  2.0000E+08
  2.0000E+08
  2.0000E+08
  2.0000E+08
  2.0000E+08
  2.0000E+08
  2.0000E+08
  2.0000E+08
  2.0000E+08
  2.0000E+08
  2.0000E+08
  2.0000E+08
  2.0000E+08
  2.0000E+08
  2.0000E+08
  2.0000E+08
  2.0000E+08
  2.0000E+08
  2.0000E+08
  2.0000E+08
  2.0000E+08
  2.0000E+08
  2.0000E+08
  2.0000E+08
  2.0000E+08
  2.0000E+08
  2.0000E+08
  2.0000E+08
  2.0000E+08
  2.0000E+08
  2.0000E+08
  2.0000E+08
  2.0000E+08
  2.0000E+08
  2.0000E+08
  2.0000E+08
  2.0000E+08
  2.0000E+08
  2.0000E+08
  2.0000E+08
  2.0000E+08
  2.0000E+08
  2.0000E+08
  2.0000E+08
  2.0000E+08
  2.0000E+08
  2.0000E+08
  2.0000E+08
  2.0000E+08
  2.0000E+08
  2.0000E+08
  2.0000E+08
  2.0000E+08
  2.0000E+08
  2.0000E+08
  2.0000E+08
  2.0000E+08
  2.0000E+08
  2.0000E+08
  2.0000E+08
  2.0000E+08
  2.0000E+08
  2.0000E+08
  2.0000E+08
  2.0000E+08
  2.0000E+08
  2.0000E+08
  2.0000E+08
  2.0000E+08
  2.0000E+08
  2.0000E+08
  2.0000E+08
  2.0000E+08
  2.0000E+08
  2.0000E+08
  2.0000E+08
  2.0000E+08
  2.0000E+08
  2.0000E+08
  2.0000E+08
  2.0000E+08
  2.0000E+08
  2.0000E+08
  2.0000E+08
  2.0000E+08
  2.0000E+08
  2.0000E+08
  2.0000E+08
  2.0000E+08
  2.0000E+08
  2.0000E+08
  2.0000E+08
  2.0000E+08
  2.0000E+08
  2.0000E+08
  2.0000E+08
  2.0000E+08
  2.0000E+08
  2.0000E+08
  2.0000E+08
  2.0000E+08
  2.0000E+08
  2.0000E+08
  2.0000E+08
  2.0000E+08
  2.0000E+08
  2.0000E+08
  2.0000E+08
  2.0000E+08
  2.0000E+08
  2.0000E+08
  2.0000E+08
  2.0000E+08
  2.0000E+08
  2.0000E+08
  2.0000E+08
  2.0000E+08
  2.0000E+08
  2.0000E+08
  2.0000E+08
  2.0000E+08
  2.0000E+08
  2.0000E+08
  2.0000E+08
  2.0000E+08
  2.0000E+08
  2.0000E+08
  2.0000E+08
  2.0000E+08
  2.0000E+08
  2.0000E+08
  2.0000E+08
  2.0000E+08
  2.0000E+08
  2.0000E+08
  2.0000E+08
  2.0000E+08
  2.0000E+08
  2.0000E+08
  2.0000E+08
  2.0000E+08
  2.0000E+08
  2.0000E+08
  2.0000E+08
  2.0000E+08
  2.0000E+08
  2.0000E+08
  2.0000E+08
  2.0000E+08
  2.0000E+08
  2.0000E+08
  2.0000E+08
  2.0000E+08
  2.0000E+08
  2.0000E+08
  2.0000E+08
  2.0000E+08
  2.0000E+08
  2.0000E+08
  2.0000E+08
  2.0000E+08
  2.0000E+08
  2.0000E+08
  2.0000E+08
  2.0000E+08
  2.0000E+08
  2.0000E+08
  2.0000E+08
  2.0000E+08
  2.0000E+08
  2.0000E+08
  2.0000E+08
  2.0000E+08
  2.0000E+08
  2.0000E+08
  2.0000E+08
  2.0000E+08
  2.0000E+08
  2.0000E+08
  2.0000E+08
  2.0000E+08
  2.0000E+08
  2.0000E+08
  2.0000E+08
  2.0000E+08
  2.0000E+08
  2.0000E+08
  2.0000E+08
  2.0000E+08
  2.0000E+08
  2.0000E+08
  2.0000E+08
  2.0000E+08
  2.0000E+08
  2.0000E+08
  2.0000E+08
  2.0000E+08
  2.0000E+08
  2.0000E+08
  2.0000E+08
  2.0000E+08
  2.0000E+08
  2.0000E+08
  2.0000E+08
  2.0000E+08
  2.0000E+08
  2.0000E+08
  2.0000E+08
  2.0000E+08
  2.0000E+08
  2.0000E+08
  2.0000E+08
  2.0000E+08
  2.0000E+08
  2.0000E+08
  2.0000E+08
  2.0000E+08
  2.0000E+08
  2.0000E+08
  2.0000E+08
  2.0000E+08
  2.0000E+08
  2.0000E+08
  2.0000E+08
  2.0000E+08
  2.0000E+08
  2.0000E+08
  2.0000E+08
  2.0000E+08
  2.0000E+08
  2.0000E+08
  2.0000E+08
  2.0000E+08
  2.0000E+08
  2.0000E+08
  2.0000E+08
  2.0000E+08
  2.0000E+08
  2.0000E+08
  2.0000E+08
  2.0000E+08
  2.0000E+08
  2.0000E+08
  2.0000E+08
  2.0000E+08
  2.0000E+08
  2.0000E+08
  2.0000E+08
  2.0000E+08
  2.0000E+08
  2.0000E+08
  2.0000E+08
  2.0000E+08
  2.0000E+08
  2.0000E+08
  2.0000E+08
  2.0000E+08
  2.0000E+08
  2.0000E+08
  2.0000E+08
  2.0000E+08
  2.0000E+08
  2.0000E+08
  2.0000E+08
  2.0000E+08
  2.0000E+08
  2.0000E+08
  2.0000E+08
  2.0000E+08
  2.0000E+08
  2.0000E+08
  2.0000E+08
  2.0000E+08
  2.0000E+08
  2.0000E+08
  2.0000E+08
  2.0000E+08
  2.0000E+08
  2.0000E+08
  2.0000E+08
  2.0000E+08
  2.0000E+08
  2.0000E+08
  2.0000E+08
  2.0000E+08
  2.0000E+08
  2.0000E+08
  2.0000E+08
  2.0000E+08
  2.0000E+08
  2.0000E+08
  2.0000E+08
  2.0000E+08
  2.0000E+08
  2.0000E+08
  2.0000E+08
  2.0000E+08
  2.0000E+08
  2.0000E+08
  2.0000E+08
  2.0000E+08
  2.0000E+08
  2.0000E+08
  2.0000E+08
  2.0000E+08
  2.0000E+08
  2.0000E+08
  2.0000E+08
  2.0000E+08
  2.0000E+08
  2.0000E+08
  2.0000E+08
  2.0000E+08
  2.0000E+08
  2.0000E+08
  2.0000E+08
  2.0000E+08
  2.0000E+08
  2.0000E+08
  2.0000E+08
  2.0000E+08
  2.0000E+08
  2.0000E+08
  2.0000E+08
  2.0000E+08
  2.0000E+08
  2.0000E+08
  2.0000E+08
  2.0000E+08
  2.0000E+08
  2.0000E+08
  2.0000E+08
  2.0000E+08
  2.0000E+08
  2.0000E+08
  2.0000E+08
  2.0000E+08
  2.0000E+08
  2.0000E+08
  2.0000E+08
  2.0000E+08
  2.0000E+08
  2.0000E+08
  2.0000E+08
  2.0000E+08
  2.0000E+08
  2.0000E+08
  2.0000E+08
  2.0000E+08
  2.0000E+08
  2.0000E+08
  2.0000E+08
  2.0000E+08
  2.0000E+08
  2.0000E+08
  2.0000E+08
  2.0000E+08
  2.0000E+08
  2.0000E+08
  2.0000E+08
  2.0000E+08
  2.0000E+08
  2.0000E+08
  2.0000E+08
  2.0000E+08
  2.0000E+08
  2.0000E+08
  2.0000E+08
  2.0000E+08
  2.0000E+08
  2.0000E+08
  2.0000E+08
  2.0000E+08
  2.0000E+08
  2.0000E+08
  2.0000E+08
  2.0000E+08
  2.0000E+08
  2.0000E+08
  2.0000E+08
  2.0000E+08
  2.0000E+08
  2.0000E+08
  2.0000E+08
  2.0000E+08
  2.0000E+08
  2.0000E+08
  2.0000E+08
  2.0000E+08
  2.0000E+08
  2.0000E+08
  2.0000E+08
  2.0000E+08
  2.0000E+08
  2.0000E+08
  2.0000E+08
  2.0000E+08
  2.0000E+08
  2.0000E+08
  2.0000E+08
  2.0000E+08
  2.0000E+08
  2.0000E+08
  2.0000E+08
  2.0000E+08
  2.0000E+08
  2.0000E+08
  2.0000E+08
  2.0000E+08
  2.0000E+08
  2.0000E+08
  2.0000E+08
  2.0000E+08
  2.0000E+08
  2.0000E+08
  2.0000E+08
  2.0000E+08
  2.0000E+08
  2.0000E+08
  2.0000E+08
  2.0000E+08
  2.0000E+08
  2.0000E+08
  2.0000E+08
  2.0000E+08
  2.0000E+08
  2.0000E+08
  2.0000E+08
  2.0000E+08
  2.0000E+08
  2.0000E+08
  2.0000E+08
  2.0000E+08
  2.0000E+08
  2.0000E+08
  2.0000E+08
  2.0000E+08
  2.0000E+08
  2.0000E+08
  2.0000E+08
  2.0000E+08
  2.0000E+08
  2.0000E+08
  2.0000E+08
  2.0000E+08
  2.0000E+08
  2.0000E+08
  2.0000E+08
  2.0000E+08
  2.0000E+08
  2.0000E+08
  2.0000E+08
  2.0000E+08
  2.0000E+08
  2.0000E+08
  2.0000E+08
  2.0000E+08
  2.0000E+08
  2.0000E+08
  2.0000E+08
  2.0000E+08
  2.0000E+08
  2.0000E+08
  2.0000E+08
  2.0000E+08
  2.0000E+08
  2.0000E+08
  2.0000E+08
  2.0000E+08
  2.0000E+08
  2.0000E+08
  2.0000E+08
  2.0000E+08
  2.0000E+08
  2.0001E+08
  2.0000E+08
  2.0000E+08
  2.0000E+08
  2.0000E+08
  2.0000E+08
  2.0000E+08
  2.0000E+08
  2.0000E+08
  2.0000E+08
  2.0000E+08
  2.0000E+08
  2.0000E+08
  2.0000E+08
  2.0000E+08
  2.0000E+08
  2.0000E+08
  2.0000E+08
  2.0000E+08
  2.0000E+08
  2.0000E+08
  2.0000E+08
  2.0000E+08
  2.0000E+08
  2.0000E+08
  2.0000E+08
  2.0000E+08
  2.0000E+08
  2.0000E+08
  2.0000E+08
  2.0000E+08
  2.0000E+08
  2.0000E+08
  2.0000E+08
  2.0000E+08
  2.0000E+08
  2.0000E+08
  2.0000E+08
  2.0000E+08
  2.0000E+08
  2.0000E+08
  2.0000E+08
  2.0000E+08
  2.0000E+08
  2.0000E+08
  2.0000E+08
  2.0000E+08
  2.0000E+08
  2.0000E+08
  2.0000E+08
  2.0000E+08
  2.0000E+08
  2.0000E+08
  2.0000E+08
  2.0000E+08
  2.0000E+08
  2.0000E+08
  2.0000E+08
  2.0000E+08
  2.0000E+08
  2.0000E+08
  2.0000E+08
  2.0000E+08
  2.0000E+08
  2.0000E+08
  2.0000E+08
  2.0000E+08
  2.0000E+08
  2.0000E+08
  2.0000E+08
  2.0000E+08
  2.0000E+08
  2.0000E+08
  2.0000E+08
  2.0000E+08
  2.0000E+08
  2.0000E+08
  2.0000E+08
  2.0000E+08
  2.0000E+08
  2.0000E+08
  2.0000E+08
  2.0000E+08
  2.0000E+08
  2.0000E+08
  2.0000E+08
  2.0000E+08
  2.0000E+08
  2.0000E+08
  2.0000E+08
  2.0000E+08
  2.0000E+08
  2.0000E+08
  2.0000E+08
  2.0000E+08
  2.0000E+08
  2.0000E+08
  2.0000E+08
  2.0000E+08
  2.0000E+08
  2.0000E+08
  2.0000E+08
  2.0000E+08
  2.0000E+08
  2.0000E+08
  2.0000E+08
  2.0000E+08
  2.0000E+08
  2.0000E+08
  2.0000E+08
  2.0000E+08
  2.0000E+08
  2.0000E+08
  2.0000E+08
  2.0000E+08
  2.0000E+08
  2.0000E+08
  2.0000E+08
  2.0000E+08
  2.0000E+08
  2.0000E+08
  2.0000E+08
  2.0000E+08
  2.0000E+08
  2.0000E+08
  2.0000E+08
  2.0000E+08
  2.0000E+08
  2.0000E+08
  2.0000E+08
  2.0000E+08
  2.0000E+08
  2.0000E+08
  2.0000E+08
  2.0000E+08
  2.0000E+08
  2.0000E+08
  2.0000E+08
  2.0000E+08
  2.0000E+08
  2.0000E+08
  2.0000E+08
  2.0000E+08
  2.0000E+08
  2.0000E+08
  2.0000E+08
  2.0000E+08
  2.0000E+08
  2.0000E+08
  2.0000E+08
  2.0000E+08
  2.0000E+08
  2.0000E+08
  2.0000E+08
  2.0000E+08
  2.0000E+08
  2.0000E+08
  2.0000E+08
  2.0000E+08
  2.0000E+08
  2.0000E+08
  2.0000E+08
  2.0000E+08
  2.0000E+08
  2.0000E+08
  2.0000E+08
  2.0000E+08
  2.0000E+08
  2.0000E+08
  2.0000E+08
  2.0000E+08
  2.0000E+08
  2.0000E+08
  2.0000E+08
  2.0000E+08
  2.0000E+08
  2.0000E+08
  2.0000E+08
  2.0000E+08
  2.0000E+08
  2.0000E+08
  2.0000E+08
  2.0000E+08
  2.0000E+08
  2.0000E+08
  2.0000E+08
  2.0000E+08
  2.0000E+08
  2.0000E+08
  2.0000E+08
  2.0000E+08
  2.0000E+08
  2.0000E+08
  2.0000E+08
  2.0000E+08
  2.0000E+08
  2.0000E+08
  2.0000E+08
  2.0000E+08
  2.0000E+08
  2.0000E+08
  2.0000E+08
  2.0000E+08
  2.0000E+08
  2.0000E+08
  2.0000E+08
  2.0000E+08
  2.0000E+08
  2.0000E+08
  2.0000E+08
  2.0000E+08
  2.0000E+08
  2.0000E+08
  2.0000E+08
  2.0000E+08
  2.0000E+08
  2.0000E+08
  2.0000E+08
  2.0000E+08
  2.0000E+08
  2.0000E+08
  2.0000E+08
  2.0000E+08
  2.0000E+08
  2.0000E+08
  2.0000E+08
  2.0000E+08
  2.0000E+08
  2.0000E+08
  2.0000E+08
  2.0000E+08
  2.0000E+08
  2.0000E+08
  2.0000E+08
  2.0000E+08
  2.0000E+08
  2.0000E+08
  2.0000E+08
  2.0000E+08
  2.0000E+08
  2.0000E+08
  2.0000E+08
  2.0000E+08
  2.0000E+08
  2.0000E+08
  2.0000E+08
  2.0000E+08
  2.0000E+08
  2.0000E+08
  2.0000E+08
  2.0000E+08
  2.0000E+08
  2.0000E+08
  2.0000E+08
  2.0000E+08
  2.0000E+08
  2.0000E+08
  2.0000E+08
  2.0000E+08
  2.0000E+08
  2.0000E+08
  2.0000E+08
  2.0000E+08
  2.0000E+08
  2.0000E+08
  2.0000E+08
  2.0000E+08
  2.0000E+08
  2.0000E+08
  2.0000E+08
  2.0000E+08
  2.0000E+08
  2.0001E+08
  2.0000E+08
  2.0000E+08
  2.0000E+08
  2.0000E+08
  2.0000E+08
  2.0000E+08
  2.0000E+08
  2.0000E+08
  2.0000E+08
  2.0000E+08
  2.0000E+08
  2.0000E+08
  2.0000E+08
  2.0000E+08
  2.0000E+08
  2.0000E+08
  2.0000E+08
  2.0000E+08
  2.0000E+08
  2.0000E+08
  2.0000E+08
  2.0000E+08
  2.0000E+08
  2.0000E+08
  2.0000E+08
  2.0000E+08
  2.0000E+08
  2.0000E+08
  2.0000E+08
  2.0000E+08
  2.0000E+08
  2.0000E+08
  2.0000E+08
  2.0000E+08
  2.0000E+08
  2.0000E+08
  2.0000E+08
  2.0000E+08
  2.0000E+08
  2.0000E+08
  2.0000E+08
  2.0000E+08
  2.0000E+08
  2.0000E+08
  2.0000E+08
  2.0000E+08
  2.0000E+08
  2.0000E+08
  2.0000E+08
  2.0000E+08
  2.0000E+08
  2.0000E+08
  2.0000E+08
  2.0000E+08
  2.0000E+08
  2.0000E+08
  2.0000E+08
  2.0000E+08
  2.0000E+08
  2.0000E+08
  2.0000E+08
  2.0000E+08
  2.0000E+08
  2.0000E+08
  2.0000E+08
  2.0000E+08
  2.0000E+08
  2.0000E+08
  2.0000E+08
  2.0000E+08
  2.0000E+08
  2.0000E+08
  2.0000E+08
  2.0000E+08
  2.0000E+08
  2.0000E+08
  2.0000E+08
  2.0000E+08
  2.0000E+08
  2.0000E+08
  2.0000E+08
  2.0000E+08
  2.0000E+08
  2.0000E+08
  2.0000E+08
  2.0000E+08
  2.0000E+08
  2.0000E+08
  2.0000E+08
  2.0000E+08
  2.0000E+08
  2.0000E+08
  2.0000E+08
  2.0000E+08
  2.0000E+08
  2.0000E+08
  2.0000E+08
  2.0000E+08
  2.0000E+08
  2.0000E+08
  2.0000E+08
  2.0000E+08
  2.0000E+08
  2.0000E+08
  2.0000E+08
  2.0000E+08
  2.0000E+08
  2.0000E+08
  2.0000E+08
  2.0000E+08
  2.0000E+08
  2.0000E+08
  2.0000E+08
  2.0000E+08
  2.0000E+08
  2.0000E+08
  2.0000E+08
  2.0000E+08
  2.0000E+08
  2.0000E+08
  2.0000E+08
  2.0000E+08
  2.0000E+08
  2.0000E+08
  2.0000E+08
  2.0000E+08
  2.0000E+08
  2.0000E+08
  2.0000E+08
  2.0000E+08
  2.0000E+08
