Scalar VONMISES_STRAIN under NLStatic for nodeset
189
   0.0000E+00
  0.0000E+00
  0.0000E+00
  0.0000E+00
  0.0000E+00
  0.0000E+00
  0.0000E+00
  0.0000E+00
  0.0000E+00
  0.0000E+00
  0.0000E+00
  0.0000E+00
  0.0000E+00
  0.0000E+00
  0.0000E+00
  0.0000E+00
  0.0000E+00
  0.0000E+00
  0.0000E+00
  0.0000E+00
  0.0000E+00
  0.0000E+00
  0.0000E+00
  0.0000E+00
  0.0000E+00
  0.0000E+00
  0.0000E+00
  0.0000E+00
  0.0000E+00
  0.0000E+00
  0.0000E+00
  0.0000E+00
  0.0000E+00
  0.0000E+00
  0.0000E+00
  0.0000E+00
  0.0000E+00
  0.0000E+00
  0.0000E+00
  0.0000E+00
  0.0000E+00
  0.0000E+00
  0.0000E+00
  0.0000E+00
  0.0000E+00
  0.0000E+00
  0.0000E+00
  0.0000E+00
  0.0000E+00
  0.0000E+00
  0.0000E+00
  0.0000E+00
  0.0000E+00
  0.0000E+00
  0.0000E+00
  0.0000E+00
  0.0000E+00
  0.0000E+00
  0.0000E+00
  0.0000E+00
  0.0000E+00
  0.0000E+00
  0.0000E+00
  0.0000E+00
  0.0000E+00
  0.0000E+00
  0.0000E+00
  0.0000E+00
  0.0000E+00
  0.0000E+00
  0.0000E+00
  0.0000E+00
  0.0000E+00
  0.0000E+00
  0.0000E+00
  0.0000E+00
  0.0000E+00
  0.0000E+00
  0.0000E+00
  0.0000E+00
  0.0000E+00
  0.0000E+00
  0.0000E+00
  0.0000E+00
  0.0000E+00
  0.0000E+00
  0.0000E+00
  0.0000E+00
  0.0000E+00
  0.0000E+00
  0.0000E+00
  0.0000E+00
  0.0000E+00
  0.0000E+00
  0.0000E+00
  0.0000E+00
  0.0000E+00
  0.0000E+00
  0.0000E+00
  0.0000E+00
  0.0000E+00
  0.0000E+00
  0.0000E+00
  0.0000E+00
  0.0000E+00
  0.0000E+00
  0.0000E+00
  0.0000E+00
  0.0000E+00
  0.0000E+00
  0.0000E+00
  0.0000E+00
  0.0000E+00
  0.0000E+00
  0.0000E+00
  0.0000E+00
  0.0000E+00
  0.0000E+00
  0.0000E+00
  0.0000E+00
  0.0000E+00
  0.0000E+00
  0.0000E+00
  0.0000E+00
  0.0000E+00
  0.0000E+00
  0.0000E+00
  0.0000E+00
  0.0000E+00
  0.0000E+00
  0.0000E+00
  0.0000E+00
  0.0000E+00
  0.0000E+00
  0.0000E+00
  0.0000E+00
  0.0000E+00
  0.0000E+00
  0.0000E+00
  0.0000E+00
  0.0000E+00
  0.0000E+00
  0.0000E+00
  0.0000E+00
  0.0000E+00
  0.0000E+00
  0.0000E+00
  0.0000E+00
  0.0000E+00
  0.0000E+00
  0.0000E+00
  0.0000E+00
  0.0000E+00
  0.0000E+00
  0.0000E+00
  0.0000E+00
  0.0000E+00
  0.0000E+00
  0.0000E+00
  0.0000E+00
  0.0000E+00
  0.0000E+00
  0.0000E+00
  0.0000E+00
  0.0000E+00
  0.0000E+00
  0.0000E+00
  0.0000E+00
  0.0000E+00
  0.0000E+00
  0.0000E+00
  0.0000E+00
  0.0000E+00
  0.0000E+00
  0.0000E+00
  0.0000E+00
  0.0000E+00
  0.0000E+00
  0.0000E+00
  0.0000E+00
  0.0000E+00
  0.0000E+00
  0.0000E+00
  0.0000E+00
  0.0000E+00
  0.0000E+00
  0.0000E+00
  0.0000E+00
  0.0000E+00
  0.0000E+00
   1.0000E-01
  5.2061E-02
  4.7142E-02
  5.2061E-02
  4.7142E-02
  4.1776E-02
  4.7142E-02
  5.2061E-02
  4.7142E-02
  5.2061E-02
  6.6048E-02
  6.5547E-02
  6.6048E-02
  6.5547E-02
  6.5029E-02
  6.5547E-02
  6.6048E-02
  6.5547E-02
  6.6048E-02
  6.5658E-02
  6.7436E-02
  6.5658E-02
  6.7436E-02
  6.9311E-02
  6.7436E-02
  6.5658E-02
  6.7436E-02
  6.5658E-02
  6.6972E-02
  6.6996E-02
  6.6972E-02
  6.6996E-02
  6.7008E-02
  6.6996E-02
  6.6972E-02
  6.6996E-02
  6.6972E-02
  6.6963E-02
  6.6962E-02
  6.6963E-02
  6.6962E-02
  6.6916E-02
  6.6962E-02
  6.6963E-02
  6.6962E-02
  6.6963E-02
  6.6959E-02
  6.6954E-02
  6.6959E-02
  6.6954E-02
  6.6958E-02
  6.6954E-02
  6.6959E-02
  6.6954E-02
  6.6959E-02
  6.6957E-02
  6.6957E-02
  6.6957E-02
  6.6957E-02
  6.6957E-02
  6.6957E-02
  6.6957E-02
  6.6957E-02
  6.6957E-02
  6.6957E-02
  6.6957E-02
  6.6957E-02
  6.6957E-02
  6.6957E-02
  6.6957E-02
  6.6957E-02
  6.6957E-02
  6.6957E-02
  6.6957E-02
  6.6957E-02
  6.6957E-02
  6.6957E-02
  6.6957E-02
  6.6957E-02
  6.6957E-02
  6.6957E-02
  6.6957E-02
  6.6957E-02
  6.6957E-02
  6.6957E-02
  6.6957E-02
  6.6957E-02
  6.6957E-02
  6.6957E-02
  6.6957E-02
  6.6957E-02
  6.6957E-02
  6.6957E-02
  6.6957E-02
  6.6957E-02
  6.6957E-02
  6.6957E-02
  6.6957E-02
  6.6957E-02
  6.6957E-02
  6.6957E-02
  6.6957E-02
  6.6957E-02
  6.6957E-02
  6.6957E-02
  6.6957E-02
  6.6957E-02
  6.6957E-02
  6.6957E-02
  6.6957E-02
  6.6957E-02
  6.6957E-02
  6.6957E-02
  6.6957E-02
  6.6957E-02
  6.6957E-02
  6.6957E-02
  6.6957E-02
  6.6957E-02
  6.6957E-02
  6.6957E-02
  6.6957E-02
  6.6957E-02
  6.6957E-02
  6.6957E-02
  6.6957E-02
  6.6957E-02
  6.6957E-02
  6.6957E-02
  6.6957E-02
  6.6957E-02
  6.6957E-02
  6.6957E-02
  6.6957E-02
  6.6957E-02
  6.6957E-02
  6.6957E-02
  6.6957E-02
  6.6957E-02
  6.6957E-02
  6.6957E-02
  6.6957E-02
  6.6957E-02
  6.6957E-02
  6.6957E-02
  6.6957E-02
  6.6957E-02
  6.6957E-02
  6.6957E-02
  6.6957E-02
  6.6957E-02
  6.6957E-02
  6.6957E-02
  6.6957E-02
  6.6957E-02
  6.6957E-02
  6.6957E-02
  6.6957E-02
  6.6957E-02
  6.6957E-02
  6.6957E-02
  6.6957E-02
  6.6957E-02
  6.6957E-02
  6.6957E-02
  6.6957E-02
  6.6957E-02
  6.6957E-02
  6.6957E-02
  6.6957E-02
  6.6957E-02
  6.6957E-02
  6.6957E-02
  6.6957E-02
  6.6957E-02
  6.6957E-02
  6.6957E-02
  6.6957E-02
  6.6957E-02
  6.6957E-02
  6.6957E-02
  6.6957E-02
  6.6957E-02
  6.6957E-02
  6.6957E-02
  6.6957E-02
  6.6957E-02
  6.6957E-02
  6.6957E-02
  6.6957E-02
   2.0000E-01
  1.1091E-01
  1.0036E-01
  1.1091E-01
  1.0036E-01
  8.8668E-02
  1.0036E-01
  1.1091E-01
  1.0036E-01
  1.1091E-01
  1.4163E-01
  1.4079E-01
  1.4163E-01
  1.4079E-01
  1.3989E-01
  1.4079E-01
  1.4163E-01
  1.4079E-01
  1.4163E-01
  1.4090E-01
  1.4488E-01
  1.4090E-01
  1.4488E-01
  1.4908E-01
  1.4488E-01
  1.4090E-01
  1.4488E-01
  1.4090E-01
  1.4382E-01
  1.4378E-01
  1.4382E-01
  1.4378E-01
  1.4369E-01
  1.4378E-01
  1.4382E-01
  1.4378E-01
  1.4382E-01
  1.4372E-01
  1.4371E-01
  1.4372E-01
  1.4371E-01
  1.4360E-01
  1.4371E-01
  1.4372E-01
  1.4371E-01
  1.4372E-01
  1.4371E-01
  1.4370E-01
  1.4371E-01
  1.4370E-01
  1.4371E-01
  1.4370E-01
  1.4371E-01
  1.4370E-01
  1.4371E-01
  1.4370E-01
  1.4371E-01
  1.4370E-01
  1.4371E-01
  1.4371E-01
  1.4371E-01
  1.4370E-01
  1.4371E-01
  1.4370E-01
  1.4371E-01
  1.4371E-01
  1.4371E-01
  1.4371E-01
  1.4371E-01
  1.4371E-01
  1.4371E-01
  1.4371E-01
  1.4371E-01
  1.4371E-01
  1.4371E-01
  1.4371E-01
  1.4371E-01
  1.4371E-01
  1.4371E-01
  1.4371E-01
  1.4371E-01
  1.4371E-01
  1.4371E-01
  1.4371E-01
  1.4371E-01
  1.4371E-01
  1.4371E-01
  1.4371E-01
  1.4371E-01
  1.4371E-01
  1.4371E-01
  1.4371E-01
  1.4371E-01
  1.4371E-01
  1.4371E-01
  1.4371E-01
  1.4371E-01
  1.4371E-01
  1.4371E-01
  1.4371E-01
  1.4371E-01
  1.4371E-01
  1.4371E-01
  1.4371E-01
  1.4371E-01
  1.4371E-01
  1.4371E-01
  1.4371E-01
  1.4371E-01
  1.4371E-01
  1.4371E-01
  1.4371E-01
  1.4371E-01
  1.4371E-01
  1.4371E-01
  1.4371E-01
  1.4371E-01
  1.4371E-01
  1.4371E-01
  1.4371E-01
  1.4371E-01
  1.4371E-01
  1.4371E-01
  1.4371E-01
  1.4371E-01
  1.4371E-01
  1.4371E-01
  1.4371E-01
  1.4371E-01
  1.4371E-01
  1.4371E-01
  1.4371E-01
  1.4371E-01
  1.4371E-01
  1.4371E-01
  1.4371E-01
  1.4371E-01
  1.4371E-01
  1.4371E-01
  1.4371E-01
  1.4371E-01
  1.4371E-01
  1.4371E-01
  1.4371E-01
  1.4371E-01
  1.4371E-01
  1.4371E-01
  1.4371E-01
  1.4371E-01
  1.4371E-01
  1.4371E-01
  1.4371E-01
  1.4371E-01
  1.4371E-01
  1.4371E-01
  1.4371E-01
  1.4371E-01
  1.4371E-01
  1.4371E-01
  1.4371E-01
  1.4371E-01
  1.4371E-01
  1.4371E-01
  1.4371E-01
  1.4371E-01
  1.4371E-01
  1.4371E-01
  1.4371E-01
  1.4371E-01
  1.4371E-01
  1.4371E-01
  1.4371E-01
  1.4371E-01
  1.4371E-01
  1.4371E-01
  1.4371E-01
  1.4371E-01
  1.4371E-01
  1.4371E-01
  1.4371E-01
  1.4371E-01
  1.4371E-01
  1.4371E-01
  1.4371E-01
  1.4371E-01
  1.4371E-01
  1.4371E-01
  1.4371E-01
  1.4371E-01
  1.4371E-01
   3.0000E-01
  1.8212E-01
  1.6429E-01
  1.8212E-01
  1.6429E-01
  1.4403E-01
  1.6429E-01
  1.8212E-01
  1.6429E-01
  1.8212E-01
  2.3486E-01
  2.3398E-01
  2.3486E-01
  2.3398E-01
  2.3293E-01
  2.3398E-01
  2.3486E-01
  2.3398E-01
  2.3486E-01
  2.3473E-01
  2.4181E-01
  2.3473E-01
  2.4181E-01
  2.4933E-01
  2.4181E-01
  2.3473E-01
  2.4181E-01
  2.3473E-01
  2.3977E-01
  2.3945E-01
  2.3977E-01
  2.3945E-01
  2.3899E-01
  2.3945E-01
  2.3977E-01
  2.3945E-01
  2.3977E-01
  2.3938E-01
  2.3934E-01
  2.3938E-01
  2.3934E-01
  2.3912E-01
  2.3934E-01
  2.3938E-01
  2.3934E-01
  2.3938E-01
  2.3935E-01
  2.3933E-01
  2.3935E-01
  2.3933E-01
  2.3938E-01
  2.3933E-01
  2.3935E-01
  2.3933E-01
  2.3935E-01
  2.3935E-01
  2.3935E-01
  2.3935E-01
  2.3935E-01
  2.3935E-01
  2.3935E-01
  2.3935E-01
  2.3935E-01
  2.3935E-01
  2.3935E-01
  2.3935E-01
  2.3935E-01
  2.3935E-01
  2.3935E-01
  2.3935E-01
  2.3935E-01
  2.3935E-01
  2.3935E-01
  2.3935E-01
  2.3935E-01
  2.3935E-01
  2.3935E-01
  2.3935E-01
  2.3935E-01
  2.3935E-01
  2.3935E-01
  2.3935E-01
  2.3935E-01
  2.3935E-01
  2.3935E-01
  2.3935E-01
  2.3935E-01
  2.3935E-01
  2.3935E-01
  2.3935E-01
  2.3935E-01
  2.3935E-01
  2.3935E-01
  2.3935E-01
  2.3935E-01
  2.3935E-01
  2.3935E-01
  2.3935E-01
  2.3935E-01
  2.3935E-01
  2.3935E-01
  2.3935E-01
  2.3935E-01
  2.3935E-01
  2.3935E-01
  2.3935E-01
  2.3935E-01
  2.3935E-01
  2.3935E-01
  2.3935E-01
  2.3935E-01
  2.3935E-01
  2.3935E-01
  2.3935E-01
  2.3935E-01
  2.3935E-01
  2.3935E-01
  2.3935E-01
  2.3935E-01
  2.3935E-01
  2.3935E-01
  2.3935E-01
  2.3935E-01
  2.3935E-01
  2.3935E-01
  2.3935E-01
  2.3935E-01
  2.3935E-01
  2.3935E-01
  2.3935E-01
  2.3935E-01
  2.3935E-01
  2.3935E-01
  2.3935E-01
  2.3935E-01
  2.3935E-01
  2.3935E-01
  2.3935E-01
  2.3935E-01
  2.3935E-01
  2.3935E-01
  2.3935E-01
  2.3935E-01
  2.3935E-01
  2.3935E-01
  2.3935E-01
  2.3935E-01
  2.3935E-01
  2.3935E-01
  2.3935E-01
  2.3935E-01
  2.3935E-01
  2.3935E-01
  2.3935E-01
  2.3935E-01
  2.3935E-01
  2.3935E-01
  2.3935E-01
  2.3935E-01
  2.3935E-01
  2.3935E-01
  2.3935E-01
  2.3935E-01
  2.3935E-01
  2.3935E-01
  2.3935E-01
  2.3935E-01
  2.3935E-01
  2.3935E-01
  2.3935E-01
  2.3935E-01
  2.3935E-01
  2.3935E-01
  2.3935E-01
  2.3935E-01
  2.3935E-01
  2.3935E-01
  2.3935E-01
  2.3935E-01
  2.3935E-01
  2.3935E-01
  2.3935E-01
  2.3935E-01
  2.3935E-01
  2.3935E-01
  2.3935E-01
  2.3935E-01
  2.3935E-01
  2.3935E-01
  2.3935E-01
