Scalar VONMISES under NLStatic for nodeset
189
   0.0000E+00
  0.0000E+00
  0.0000E+00
  0.0000E+00
  0.0000E+00
  0.0000E+00
  0.0000E+00
  0.0000E+00
  0.0000E+00
  0.0000E+00
  0.0000E+00
  0.0000E+00
  0.0000E+00
  0.0000E+00
  0.0000E+00
  0.0000E+00
  0.0000E+00
  0.0000E+00
  0.0000E+00
  0.0000E+00
  0.0000E+00
  0.0000E+00
  0.0000E+00
  0.0000E+00
  0.0000E+00
  0.0000E+00
  0.0000E+00
  0.0000E+00
  0.0000E+00
  0.0000E+00
  0.0000E+00
  0.0000E+00
  0.0000E+00
  0.0000E+00
  0.0000E+00
  0.0000E+00
  0.0000E+00
  0.0000E+00
  0.0000E+00
  0.0000E+00
  0.0000E+00
  0.0000E+00
  0.0000E+00
  0.0000E+00
  0.0000E+00
  0.0000E+00
  0.0000E+00
  0.0000E+00
  0.0000E+00
  0.0000E+00
  0.0000E+00
  0.0000E+00
  0.0000E+00
  0.0000E+00
  0.0000E+00
  0.0000E+00
  0.0000E+00
  0.0000E+00
  0.0000E+00
  0.0000E+00
  0.0000E+00
  0.0000E+00
  0.0000E+00
  0.0000E+00
  0.0000E+00
  0.0000E+00
  0.0000E+00
  0.0000E+00
  0.0000E+00
  0.0000E+00
  0.0000E+00
  0.0000E+00
  0.0000E+00
  0.0000E+00
  0.0000E+00
  0.0000E+00
  0.0000E+00
  0.0000E+00
  0.0000E+00
  0.0000E+00
  0.0000E+00
  0.0000E+00
  0.0000E+00
  0.0000E+00
  0.0000E+00
  0.0000E+00
  0.0000E+00
  0.0000E+00
  0.0000E+00
  0.0000E+00
  0.0000E+00
  0.0000E+00
  0.0000E+00
  0.0000E+00
  0.0000E+00
  0.0000E+00
  0.0000E+00
  0.0000E+00
  0.0000E+00
  0.0000E+00
  0.0000E+00
  0.0000E+00
  0.0000E+00
  0.0000E+00
  0.0000E+00
  0.0000E+00
  0.0000E+00
  0.0000E+00
  0.0000E+00
  0.0000E+00
  0.0000E+00
  0.0000E+00
  0.0000E+00
  0.0000E+00
  0.0000E+00
  0.0000E+00
  0.0000E+00
  0.0000E+00
  0.0000E+00
  0.0000E+00
  0.0000E+00
  0.0000E+00
  0.0000E+00
  0.0000E+00
  0.0000E+00
  0.0000E+00
  0.0000E+00
  0.0000E+00
  0.0000E+00
  0.0000E+00
  0.0000E+00
  0.0000E+00
  0.0000E+00
  0.0000E+00
  0.0000E+00
  0.0000E+00
  0.0000E+00
  0.0000E+00
  0.0000E+00
  0.0000E+00
  0.0000E+00
  0.0000E+00
  0.0000E+00
  0.0000E+00
  0.0000E+00
  0.0000E+00
  0.0000E+00
  0.0000E+00
  0.0000E+00
  0.0000E+00
  0.0000E+00
  0.0000E+00
  0.0000E+00
  0.0000E+00
  0.0000E+00
  0.0000E+00
  0.0000E+00
  0.0000E+00
  0.0000E+00
  0.0000E+00
  0.0000E+00
  0.0000E+00
  0.0000E+00
  0.0000E+00
  0.0000E+00
  0.0000E+00
  0.0000E+00
  0.0000E+00
  0.0000E+00
  0.0000E+00
  0.0000E+00
  0.0000E+00
  0.0000E+00
  0.0000E+00
  0.0000E+00
  0.0000E+00
  0.0000E+00
  0.0000E+00
  0.0000E+00
  0.0000E+00
  0.0000E+00
  0.0000E+00
  0.0000E+00
  0.0000E+00
  0.0000E+00
  0.0000E+00
  0.0000E+00
  0.0000E+00
  0.0000E+00
  0.0000E+00
   1.0000E-01
  8.2096E+01
  7.4340E+01
  8.2096E+01
  7.4340E+01
  6.5878E+01
  7.4340E+01
  8.2096E+01
  7.4340E+01
  8.2096E+01
  1.0415E+02
  1.0336E+02
  1.0415E+02
  1.0336E+02
  1.0255E+02
  1.0336E+02
  1.0415E+02
  1.0336E+02
  1.0415E+02
  1.0354E+02
  1.0634E+02
  1.0354E+02
  1.0634E+02
  1.0930E+02
  1.0634E+02
  1.0354E+02
  1.0634E+02
  1.0354E+02
  1.0561E+02
  1.0565E+02
  1.0561E+02
  1.0565E+02
  1.0567E+02
  1.0565E+02
  1.0561E+02
  1.0565E+02
  1.0561E+02
  1.0559E+02
  1.0559E+02
  1.0559E+02
  1.0559E+02
  1.0552E+02
  1.0559E+02
  1.0559E+02
  1.0559E+02
  1.0559E+02
  1.0559E+02
  1.0558E+02
  1.0559E+02
  1.0558E+02
  1.0559E+02
  1.0558E+02
  1.0559E+02
  1.0558E+02
  1.0559E+02
  1.0559E+02
  1.0559E+02
  1.0559E+02
  1.0559E+02
  1.0559E+02
  1.0559E+02
  1.0559E+02
  1.0559E+02
  1.0559E+02
  1.0559E+02
  1.0559E+02
  1.0559E+02
  1.0559E+02
  1.0559E+02
  1.0559E+02
  1.0559E+02
  1.0559E+02
  1.0559E+02
  1.0559E+02
  1.0559E+02
  1.0559E+02
  1.0559E+02
  1.0559E+02
  1.0559E+02
  1.0559E+02
  1.0559E+02
  1.0559E+02
  1.0559E+02
  1.0559E+02
  1.0559E+02
  1.0559E+02
  1.0559E+02
  1.0559E+02
  1.0559E+02
  1.0559E+02
  1.0559E+02
  1.0559E+02
  1.0559E+02
  1.0559E+02
  1.0559E+02
  1.0559E+02
  1.0559E+02
  1.0559E+02
  1.0559E+02
  1.0559E+02
  1.0559E+02
  1.0559E+02
  1.0559E+02
  1.0559E+02
  1.0559E+02
  1.0559E+02
  1.0559E+02
  1.0559E+02
  1.0559E+02
  1.0559E+02
  1.0559E+02
  1.0559E+02
  1.0559E+02
  1.0559E+02
  1.0559E+02
  1.0559E+02
  1.0559E+02
  1.0559E+02
  1.0559E+02
  1.0559E+02
  1.0559E+02
  1.0559E+02
  1.0559E+02
  1.0559E+02
  1.0559E+02
  1.0559E+02
  1.0559E+02
  1.0559E+02
  1.0559E+02
  1.0559E+02
  1.0559E+02
  1.0559E+02
  1.0559E+02
  1.0559E+02
  1.0559E+02
  1.0559E+02
  1.0559E+02
  1.0559E+02
  1.0559E+02
  1.0559E+02
  1.0559E+02
  1.0559E+02
  1.0559E+02
  1.0559E+02
  1.0559E+02
  1.0559E+02
  1.0559E+02
  1.0559E+02
  1.0559E+02
  1.0559E+02
  1.0559E+02
  1.0559E+02
  1.0559E+02
  1.0559E+02
  1.0559E+02
  1.0559E+02
  1.0559E+02
  1.0559E+02
  1.0559E+02
  1.0559E+02
  1.0559E+02
  1.0559E+02
  1.0559E+02
  1.0559E+02
  1.0559E+02
  1.0559E+02
  1.0559E+02
  1.0559E+02
  1.0559E+02
  1.0559E+02
  1.0559E+02
  1.0559E+02
  1.0559E+02
  1.0559E+02
  1.0559E+02
  1.0559E+02
  1.0559E+02
  1.0559E+02
  1.0559E+02
  1.0559E+02
  1.0559E+02
  1.0559E+02
  1.0559E+02
  1.0559E+02
  1.0559E+02
  1.0559E+02
  1.0559E+02
  1.0559E+02
  1.0559E+02
  1.0559E+02
   2.0000E-01
  1.7489E+02
  1.5825E+02
  1.7489E+02
  1.5825E+02
  1.3982E+02
  1.5825E+02
  1.7489E+02
  1.5825E+02
  1.7489E+02
  2.2335E+02
  2.2202E+02
  2.2335E+02
  2.2202E+02
  2.2060E+02
  2.2202E+02
  2.2335E+02
  2.2202E+02
  2.2335E+02
  2.2219E+02
  2.2846E+02
  2.2219E+02
  2.2846E+02
  2.3509E+02
  2.2846E+02
  2.2219E+02
  2.2846E+02
  2.2219E+02
  2.2679E+02
  2.2672E+02
  2.2679E+02
  2.2672E+02
  2.2658E+02
  2.2672E+02
  2.2679E+02
  2.2672E+02
  2.2679E+02
  2.2664E+02
  2.2662E+02
  2.2664E+02
  2.2662E+02
  2.2645E+02
  2.2662E+02
  2.2664E+02
  2.2662E+02
  2.2664E+02
  2.2662E+02
  2.2660E+02
  2.2662E+02
  2.2660E+02
  2.2663E+02
  2.2660E+02
  2.2662E+02
  2.2660E+02
  2.2662E+02
  2.2661E+02
  2.2661E+02
  2.2661E+02
  2.2661E+02
  2.2661E+02
  2.2661E+02
  2.2661E+02
  2.2661E+02
  2.2661E+02
  2.2661E+02
  2.2661E+02
  2.2661E+02
  2.2661E+02
  2.2661E+02
  2.2661E+02
  2.2661E+02
  2.2661E+02
  2.2661E+02
  2.2661E+02
  2.2661E+02
  2.2661E+02
  2.2661E+02
  2.2661E+02
  2.2661E+02
  2.2661E+02
  2.2661E+02
  2.2661E+02
  2.2661E+02
  2.2661E+02
  2.2661E+02
  2.2661E+02
  2.2661E+02
  2.2661E+02
  2.2661E+02
  2.2661E+02
  2.2661E+02
  2.2661E+02
  2.2661E+02
  2.2661E+02
  2.2661E+02
  2.2661E+02
  2.2661E+02
  2.2661E+02
  2.2661E+02
  2.2661E+02
  2.2661E+02
  2.2661E+02
  2.2661E+02
  2.2661E+02
  2.2661E+02
  2.2661E+02
  2.2661E+02
  2.2661E+02
  2.2661E+02
  2.2661E+02
  2.2661E+02
  2.2661E+02
  2.2661E+02
  2.2661E+02
  2.2661E+02
  2.2661E+02
  2.2661E+02
  2.2661E+02
  2.2661E+02
  2.2661E+02
  2.2661E+02
  2.2661E+02
  2.2661E+02
  2.2661E+02
  2.2661E+02
  2.2661E+02
  2.2661E+02
  2.2661E+02
  2.2661E+02
  2.2661E+02
  2.2661E+02
  2.2661E+02
  2.2661E+02
  2.2661E+02
  2.2661E+02
  2.2661E+02
  2.2661E+02
  2.2661E+02
  2.2661E+02
  2.2661E+02
  2.2661E+02
  2.2661E+02
  2.2661E+02
  2.2661E+02
  2.2661E+02
  2.2661E+02
  2.2661E+02
  2.2661E+02
  2.2661E+02
  2.2661E+02
  2.2661E+02
  2.2661E+02
  2.2661E+02
  2.2661E+02
  2.2661E+02
  2.2661E+02
  2.2661E+02
  2.2661E+02
  2.2661E+02
  2.2661E+02
  2.2661E+02
  2.2661E+02
  2.2661E+02
  2.2661E+02
  2.2661E+02
  2.2661E+02
  2.2661E+02
  2.2661E+02
  2.2661E+02
  2.2661E+02
  2.2661E+02
  2.2661E+02
  2.2661E+02
  2.2661E+02
  2.2661E+02
  2.2661E+02
  2.2661E+02
  2.2661E+02
  2.2661E+02
  2.2661E+02
  2.2661E+02
  2.2661E+02
  2.2661E+02
  2.2661E+02
  2.2661E+02
  2.2661E+02
  2.2661E+02
  2.2661E+02
  2.2661E+02
  2.2661E+02
   3.0000E-01
  2.8719E+02
  2.5908E+02
  2.8719E+02
  2.5908E+02
  2.2712E+02
  2.5908E+02
  2.8719E+02
  2.5908E+02
  2.8719E+02
  3.7036E+02
  3.6897E+02
  3.7036E+02
  3.6897E+02
  3.6732E+02
  3.6897E+02
  3.7036E+02
  3.6897E+02
  3.7036E+02
  3.7015E+02
  3.8132E+02
  3.7015E+02
  3.8132E+02
  3.9317E+02
  3.8132E+02
  3.7015E+02
  3.8132E+02
  3.7015E+02
  3.7810E+02
  3.7759E+02
  3.7810E+02
  3.7759E+02
  3.7687E+02
  3.7759E+02
  3.7810E+02
  3.7759E+02
  3.7810E+02
  3.7748E+02
  3.7742E+02
  3.7748E+02
  3.7742E+02
  3.7708E+02
  3.7742E+02
  3.7748E+02
  3.7742E+02
  3.7748E+02
  3.7744E+02
  3.7741E+02
  3.7744E+02
  3.7741E+02
  3.7748E+02
  3.7741E+02
  3.7744E+02
  3.7741E+02
  3.7744E+02
  3.7743E+02
  3.7744E+02
  3.7743E+02
  3.7744E+02
  3.7743E+02
  3.7744E+02
  3.7743E+02
  3.7744E+02
  3.7743E+02
  3.7743E+02
  3.7743E+02
  3.7743E+02
  3.7743E+02
  3.7743E+02
  3.7743E+02
  3.7743E+02
  3.7743E+02
  3.7743E+02
  3.7743E+02
  3.7743E+02
  3.7743E+02
  3.7743E+02
  3.7743E+02
  3.7743E+02
  3.7743E+02
  3.7743E+02
  3.7743E+02
  3.7743E+02
  3.7743E+02
  3.7743E+02
  3.7743E+02
  3.7743E+02
  3.7743E+02
  3.7743E+02
  3.7743E+02
  3.7743E+02
  3.7743E+02
  3.7743E+02
  3.7743E+02
  3.7743E+02
  3.7743E+02
  3.7743E+02
  3.7743E+02
  3.7743E+02
  3.7743E+02
  3.7743E+02
  3.7743E+02
  3.7743E+02
  3.7743E+02
  3.7743E+02
  3.7743E+02
  3.7743E+02
  3.7743E+02
  3.7743E+02
  3.7743E+02
  3.7743E+02
  3.7743E+02
  3.7743E+02
  3.7743E+02
  3.7743E+02
  3.7743E+02
  3.7743E+02
  3.7743E+02
  3.7743E+02
  3.7743E+02
  3.7743E+02
  3.7743E+02
  3.7743E+02
  3.7743E+02
  3.7743E+02
  3.7743E+02
  3.7743E+02
  3.7743E+02
  3.7743E+02
  3.7743E+02
  3.7743E+02
  3.7743E+02
  3.7743E+02
  3.7743E+02
  3.7743E+02
  3.7743E+02
  3.7743E+02
  3.7743E+02
  3.7743E+02
  3.7743E+02
  3.7743E+02
  3.7743E+02
  3.7743E+02
  3.7743E+02
  3.7743E+02
  3.7743E+02
  3.7743E+02
  3.7743E+02
  3.7743E+02
  3.7743E+02
  3.7743E+02
  3.7743E+02
  3.7743E+02
  3.7743E+02
  3.7743E+02
  3.7743E+02
  3.7743E+02
  3.7743E+02
  3.7743E+02
  3.7743E+02
  3.7743E+02
  3.7743E+02
  3.7743E+02
  3.7743E+02
  3.7743E+02
  3.7743E+02
  3.7743E+02
  3.7743E+02
  3.7743E+02
  3.7743E+02
  3.7743E+02
  3.7743E+02
  3.7743E+02
  3.7743E+02
  3.7743E+02
  3.7743E+02
  3.7743E+02
  3.7743E+02
  3.7743E+02
  3.7743E+02
  3.7743E+02
  3.7743E+02
  3.7743E+02
  3.7743E+02
  3.7743E+02
  3.7743E+02
  3.7743E+02
  3.7743E+02
  3.7743E+02
  3.7743E+02
