Scalar VONMISES under NLStatic for nodeset
315
   0.0000E+00
  0.0000E+00
  0.0000E+00
  0.0000E+00
  0.0000E+00
  0.0000E+00
  0.0000E+00
  0.0000E+00
  0.0000E+00
  0.0000E+00
  0.0000E+00
  0.0000E+00
  0.0000E+00
  0.0000E+00
  0.0000E+00
  0.0000E+00
  0.0000E+00
  0.0000E+00
  0.0000E+00
  0.0000E+00
  0.0000E+00
  0.0000E+00
  0.0000E+00
  0.0000E+00
  0.0000E+00
  0.0000E+00
  0.0000E+00
  0.0000E+00
  0.0000E+00
  0.0000E+00
  0.0000E+00
  0.0000E+00
  0.0000E+00
  0.0000E+00
  0.0000E+00
  0.0000E+00
  0.0000E+00
  0.0000E+00
  0.0000E+00
  0.0000E+00
  0.0000E+00
  0.0000E+00
  0.0000E+00
  0.0000E+00
  0.0000E+00
  0.0000E+00
  0.0000E+00
  0.0000E+00
  0.0000E+00
  0.0000E+00
  0.0000E+00
  0.0000E+00
  0.0000E+00
  0.0000E+00
  0.0000E+00
  0.0000E+00
  0.0000E+00
  0.0000E+00
  0.0000E+00
  0.0000E+00
  0.0000E+00
  0.0000E+00
  0.0000E+00
  0.0000E+00
  0.0000E+00
  0.0000E+00
  0.0000E+00
  0.0000E+00
  0.0000E+00
  0.0000E+00
  0.0000E+00
  0.0000E+00
  0.0000E+00
  0.0000E+00
  0.0000E+00
  0.0000E+00
  0.0000E+00
  0.0000E+00
  0.0000E+00
  0.0000E+00
  0.0000E+00
  0.0000E+00
  0.0000E+00
  0.0000E+00
  0.0000E+00
  0.0000E+00
  0.0000E+00
  0.0000E+00
  0.0000E+00
  0.0000E+00
  0.0000E+00
  0.0000E+00
  0.0000E+00
  0.0000E+00
  0.0000E+00
  0.0000E+00
  0.0000E+00
  0.0000E+00
  0.0000E+00
  0.0000E+00
  0.0000E+00
  0.0000E+00
  0.0000E+00
  0.0000E+00
  0.0000E+00
  0.0000E+00
  0.0000E+00
  0.0000E+00
  0.0000E+00
  0.0000E+00
  0.0000E+00
  0.0000E+00
  0.0000E+00
  0.0000E+00
  0.0000E+00
  0.0000E+00
  0.0000E+00
  0.0000E+00
  0.0000E+00
  0.0000E+00
  0.0000E+00
  0.0000E+00
  0.0000E+00
  0.0000E+00
  0.0000E+00
  0.0000E+00
  0.0000E+00
  0.0000E+00
  0.0000E+00
  0.0000E+00
  0.0000E+00
  0.0000E+00
  0.0000E+00
  0.0000E+00
  0.0000E+00
  0.0000E+00
  0.0000E+00
  0.0000E+00
  0.0000E+00
  0.0000E+00
  0.0000E+00
  0.0000E+00
  0.0000E+00
  0.0000E+00
  0.0000E+00
  0.0000E+00
  0.0000E+00
  0.0000E+00
  0.0000E+00
  0.0000E+00
  0.0000E+00
  0.0000E+00
  0.0000E+00
  0.0000E+00
  0.0000E+00
  0.0000E+00
  0.0000E+00
  0.0000E+00
  0.0000E+00
  0.0000E+00
  0.0000E+00
  0.0000E+00
  0.0000E+00
  0.0000E+00
  0.0000E+00
  0.0000E+00
  0.0000E+00
  0.0000E+00
  0.0000E+00
  0.0000E+00
  0.0000E+00
  0.0000E+00
  0.0000E+00
  0.0000E+00
  0.0000E+00
  0.0000E+00
  0.0000E+00
  0.0000E+00
  0.0000E+00
  0.0000E+00
  0.0000E+00
  0.0000E+00
  0.0000E+00
  0.0000E+00
  0.0000E+00
  0.0000E+00
  0.0000E+00
  0.0000E+00
  0.0000E+00
  0.0000E+00
  0.0000E+00
  0.0000E+00
  0.0000E+00
  0.0000E+00
  0.0000E+00
  0.0000E+00
  0.0000E+00
  0.0000E+00
  0.0000E+00
  0.0000E+00
  0.0000E+00
  0.0000E+00
  0.0000E+00
  0.0000E+00
  0.0000E+00
  0.0000E+00
  0.0000E+00
  0.0000E+00
  0.0000E+00
  0.0000E+00
  0.0000E+00
  0.0000E+00
  0.0000E+00
  0.0000E+00
  0.0000E+00
  0.0000E+00
  0.0000E+00
  0.0000E+00
  0.0000E+00
  0.0000E+00
  0.0000E+00
  0.0000E+00
  0.0000E+00
  0.0000E+00
  0.0000E+00
  0.0000E+00
  0.0000E+00
  0.0000E+00
  0.0000E+00
  0.0000E+00
  0.0000E+00
  0.0000E+00
  0.0000E+00
  0.0000E+00
  0.0000E+00
  0.0000E+00
  0.0000E+00
  0.0000E+00
  0.0000E+00
  0.0000E+00
  0.0000E+00
  0.0000E+00
  0.0000E+00
  0.0000E+00
  0.0000E+00
  0.0000E+00
  0.0000E+00
  0.0000E+00
  0.0000E+00
  0.0000E+00
  0.0000E+00
  0.0000E+00
  0.0000E+00
  0.0000E+00
  0.0000E+00
  0.0000E+00
  0.0000E+00
  0.0000E+00
  0.0000E+00
  0.0000E+00
  0.0000E+00
  0.0000E+00
  0.0000E+00
  0.0000E+00
  0.0000E+00
  0.0000E+00
  0.0000E+00
  0.0000E+00
  0.0000E+00
  0.0000E+00
  0.0000E+00
  0.0000E+00
  0.0000E+00
  0.0000E+00
  0.0000E+00
  0.0000E+00
  0.0000E+00
  0.0000E+00
  0.0000E+00
  0.0000E+00
  0.0000E+00
  0.0000E+00
  0.0000E+00
  0.0000E+00
  0.0000E+00
  0.0000E+00
  0.0000E+00
  0.0000E+00
  0.0000E+00
  0.0000E+00
  0.0000E+00
  0.0000E+00
  0.0000E+00
  0.0000E+00
  0.0000E+00
  0.0000E+00
  0.0000E+00
  0.0000E+00
  0.0000E+00
  0.0000E+00
  0.0000E+00
  0.0000E+00
  0.0000E+00
  0.0000E+00
  0.0000E+00
  0.0000E+00
  0.0000E+00
  0.0000E+00
  0.0000E+00
  0.0000E+00
  0.0000E+00
  0.0000E+00
  0.0000E+00
  0.0000E+00
  0.0000E+00
  0.0000E+00
   2.5000E-01
  6.6390E+03
  6.6390E+03
  4.5792E+03
  4.5792E+03
  6.6390E+03
  6.6390E+03
  4.5792E+03
  4.5792E+03
  6.6390E+03
  6.6390E+03
  4.5792E+03
  4.5792E+03
  2.5193E+03
  2.5193E+03
  2.5193E+03
  2.5193E+03
  2.5193E+03
  2.5193E+03
  4.5792E+03
  4.5792E+03
  4.5792E+03
  4.5792E+03
  4.5792E+03
  4.5792E+03
  6.6390E+03
  6.6390E+03
  6.6390E+03
  6.6390E+03
  6.6390E+03
  6.6390E+03
  6.6390E+03
  4.5792E+03
  6.6390E+03
  4.5792E+03
  6.6390E+03
  4.5792E+03
  2.5193E+03
  2.5193E+03
  2.5193E+03
  4.5792E+03
  4.5792E+03
  4.5792E+03
  6.6390E+03
  6.6390E+03
  6.6390E+03
  6.6390E+03
  4.5792E+03
  6.6390E+03
  4.5792E+03
  6.6390E+03
  4.5792E+03
  2.5193E+03
  2.5193E+03
  2.5193E+03
  4.5792E+03
  4.5792E+03
  4.5792E+03
  6.6390E+03
  6.6390E+03
  6.6390E+03
  6.6390E+03
  4.5792E+03
  6.6390E+03
  4.5792E+03
  6.6390E+03
  4.5792E+03
  2.5193E+03
  2.5193E+03
  2.5193E+03
  4.5792E+03
  4.5792E+03
  4.5792E+03
  6.6390E+03
  6.6390E+03
  6.6390E+03
  6.6390E+03
  4.5792E+03
  6.6390E+03
  4.5792E+03
  6.6390E+03
  4.5792E+03
  2.5193E+03
  2.5193E+03
  2.5193E+03
  4.5792E+03
  4.5792E+03
  4.5792E+03
  6.6390E+03
  6.6390E+03
  6.6390E+03
  6.6390E+03
  4.5792E+03
  6.6390E+03
  4.5792E+03
  6.6390E+03
  4.5792E+03
  2.5193E+03
  2.5193E+03
  2.5193E+03
  4.5792E+03
  4.5792E+03
  4.5792E+03
  6.6390E+03
  6.6390E+03
  6.6390E+03
  6.6390E+03
  4.5792E+03
  6.6390E+03
  4.5792E+03
  6.6390E+03
  4.5792E+03
  2.5193E+03
  2.5193E+03
  2.5193E+03
  4.5792E+03
  4.5792E+03
  4.5792E+03
  6.6390E+03
  6.6390E+03
  6.6390E+03
  6.6390E+03
  4.5792E+03
  6.6390E+03
  4.5792E+03
  6.6390E+03
  4.5792E+03
  2.5193E+03
  2.5193E+03
  2.5193E+03
  4.5792E+03
  4.5792E+03
  4.5792E+03
  6.6390E+03
  6.6390E+03
  6.6390E+03
  6.6390E+03
  4.5792E+03
  6.6390E+03
  4.5792E+03
  6.6390E+03
  4.5792E+03
  2.5193E+03
  2.5193E+03
  2.5193E+03
  4.5792E+03
  4.5792E+03
  4.5792E+03
  6.6390E+03
  6.6390E+03
  6.6390E+03
  6.6390E+03
  4.5792E+03
  6.6390E+03
  4.5792E+03
  6.6390E+03
  4.5792E+03
  2.5193E+03
  2.5193E+03
  2.5193E+03
  4.5792E+03
  4.5792E+03
  4.5792E+03
  6.6390E+03
  6.6390E+03
  6.6390E+03
  6.6390E+03
  4.5792E+03
  6.6390E+03
  4.5792E+03
  6.6390E+03
  4.5792E+03
  2.5193E+03
  2.5193E+03
  2.5193E+03
  4.5792E+03
  4.5792E+03
  4.5792E+03
  6.6390E+03
  6.6390E+03
  6.6390E+03
  6.6390E+03
  4.5792E+03
  6.6390E+03
  4.5792E+03
  6.6390E+03
  4.5792E+03
  2.5193E+03
  2.5193E+03
  2.5193E+03
  4.5792E+03
  4.5792E+03
  4.5792E+03
  6.6390E+03
  6.6390E+03
  6.6390E+03
  6.6391E+03
  4.5792E+03
  6.6391E+03
  4.5792E+03
  6.6391E+03
  4.5792E+03
  2.5193E+03
  2.5193E+03
  2.5193E+03
  4.5792E+03
  4.5792E+03
  4.5792E+03
  6.6390E+03
  6.6390E+03
  6.6390E+03
  6.6391E+03
  4.5792E+03
  6.6391E+03
  4.5792E+03
  6.6391E+03
  4.5792E+03
  2.5193E+03
  2.5193E+03
  2.5193E+03
  4.5792E+03
  4.5792E+03
  4.5792E+03
  6.6390E+03
  6.6390E+03
  6.6390E+03
  6.6390E+03
  4.5792E+03
  6.6390E+03
  4.5792E+03
  6.6390E+03
  4.5792E+03
  2.5193E+03
  2.5193E+03
  2.5193E+03
  4.5791E+03
  4.5791E+03
  4.5791E+03
  6.6391E+03
  6.6391E+03
  6.6391E+03
  6.6387E+03
  4.5792E+03
  6.6387E+03
  4.5792E+03
  6.6387E+03
  4.5792E+03
  2.5193E+03
  2.5193E+03
  2.5193E+03
  4.5792E+03
  4.5792E+03
  4.5792E+03
  6.6394E+03
  6.6394E+03
  6.6394E+03
  6.6380E+03
  4.5790E+03
  6.6380E+03
  4.5790E+03
  6.6380E+03
  4.5790E+03
  2.5193E+03
  2.5193E+03
  2.5193E+03
  4.5794E+03
  4.5794E+03
  4.5794E+03
  6.6401E+03
  6.6401E+03
  6.6401E+03
  6.6369E+03
  4.5781E+03
  6.6369E+03
  4.5781E+03
  6.6369E+03
  4.5781E+03
  2.5193E+03
  2.5193E+03
  2.5193E+03
  4.5803E+03
  4.5803E+03
  4.5803E+03
  6.6412E+03
  6.6412E+03
  6.6412E+03
  6.6374E+03
  4.5756E+03
  6.6374E+03
  4.5756E+03
  6.6374E+03
  4.5756E+03
  2.5194E+03
  2.5194E+03
  2.5194E+03
  4.5828E+03
  4.5828E+03
  4.5828E+03
  6.6407E+03
  6.6407E+03
  6.6407E+03
  6.6385E+03
  4.5738E+03
  6.6385E+03
  4.5738E+03
  6.6385E+03
  4.5738E+03
  2.5194E+03
  2.5194E+03
  2.5194E+03
  4.5847E+03
  4.5847E+03
  4.5847E+03
  6.6397E+03
  6.6397E+03
  6.6397E+03
   5.0000E-01
  1.3278E+04
  1.3278E+04
  9.1582E+03
  9.1582E+03
  1.3278E+04
  1.3278E+04
  9.1582E+03
  9.1582E+03
  1.3278E+04
  1.3278E+04
  9.1582E+03
  9.1582E+03
  5.0385E+03
  5.0385E+03
  5.0385E+03
  5.0385E+03
  5.0385E+03
  5.0385E+03
  9.1582E+03
  9.1582E+03
  9.1582E+03
  9.1582E+03
  9.1582E+03
  9.1582E+03
  1.3278E+04
  1.3278E+04
  1.3278E+04
  1.3278E+04
  1.3278E+04
  1.3278E+04
  1.3278E+04
  9.1582E+03
  1.3278E+04
  9.1582E+03
  1.3278E+04
  9.1582E+03
  5.0385E+03
  5.0385E+03
  5.0385E+03
  9.1582E+03
  9.1582E+03
  9.1582E+03
  1.3278E+04
  1.3278E+04
  1.3278E+04
  1.3278E+04
  9.1582E+03
  1.3278E+04
  9.1582E+03
  1.3278E+04
  9.1582E+03
  5.0385E+03
  5.0385E+03
  5.0385E+03
  9.1582E+03
  9.1582E+03
  9.1582E+03
  1.3278E+04
  1.3278E+04
  1.3278E+04
  1.3278E+04
  9.1582E+03
  1.3278E+04
  9.1582E+03
  1.3278E+04
  9.1582E+03
  5.0385E+03
  5.0385E+03
  5.0385E+03
  9.1582E+03
  9.1582E+03
  9.1582E+03
  1.3278E+04
  1.3278E+04
  1.3278E+04
  1.3278E+04
  9.1582E+03
  1.3278E+04
  9.1582E+03
  1.3278E+04
  9.1582E+03
  5.0385E+03
  5.0385E+03
  5.0385E+03
  9.1582E+03
  9.1582E+03
  9.1582E+03
  1.3278E+04
  1.3278E+04
  1.3278E+04
  1.3278E+04
  9.1582E+03
  1.3278E+04
  9.1582E+03
  1.3278E+04
  9.1582E+03
  5.0385E+03
  5.0385E+03
  5.0385E+03
  9.1582E+03
  9.1582E+03
  9.1582E+03
  1.3278E+04
  1.3278E+04
  1.3278E+04
  1.3278E+04
  9.1582E+03
  1.3278E+04
  9.1582E+03
  1.3278E+04
  9.1582E+03
  5.0385E+03
  5.0385E+03
  5.0385E+03
  9.1582E+03
  9.1582E+03
  9.1582E+03
  1.3278E+04
  1.3278E+04
  1.3278E+04
  1.3278E+04
  9.1582E+03
  1.3278E+04
  9.1582E+03
  1.3278E+04
  9.1582E+03
  5.0385E+03
  5.0385E+03
  5.0385E+03
  9.1582E+03
  9.1582E+03
  9.1582E+03
  1.3278E+04
  1.3278E+04
  1.3278E+04
  1.3278E+04
  9.1582E+03
  1.3278E+04
  9.1582E+03
  1.3278E+04
  9.1582E+03
  5.0385E+03
  5.0385E+03
  5.0385E+03
  9.1582E+03
  9.1582E+03
  9.1582E+03
  1.3278E+04
  1.3278E+04
  1.3278E+04
  1.3278E+04
  9.1582E+03
  1.3278E+04
  9.1582E+03
  1.3278E+04
  9.1582E+03
  5.0385E+03
  5.0385E+03
  5.0385E+03
  9.1582E+03
  9.1582E+03
  9.1582E+03
  1.3278E+04
  1.3278E+04
  1.3278E+04
  1.3278E+04
  9.1582E+03
  1.3278E+04
  9.1582E+03
  1.3278E+04
  9.1582E+03
  5.0385E+03
  5.0385E+03
  5.0385E+03
  9.1582E+03
  9.1582E+03
  9.1582E+03
  1.3278E+04
  1.3278E+04
  1.3278E+04
  1.3278E+04
  9.1582E+03
  1.3278E+04
  9.1582E+03
  1.3278E+04
  9.1582E+03
  5.0385E+03
  5.0385E+03
  5.0385E+03
  9.1582E+03
  9.1582E+03
  9.1582E+03
  1.3278E+04
  1.3278E+04
  1.3278E+04
  1.3278E+04
  9.1582E+03
  1.3278E+04
  9.1582E+03
  1.3278E+04
  9.1582E+03
  5.0385E+03
  5.0385E+03
  5.0385E+03
  9.1581E+03
  9.1581E+03
  9.1581E+03
  1.3278E+04
  1.3278E+04
  1.3278E+04
  1.3278E+04
  9.1582E+03
  1.3278E+04
  9.1582E+03
  1.3278E+04
  9.1582E+03
  5.0385E+03
  5.0385E+03
  5.0385E+03
  9.1581E+03
  9.1581E+03
  9.1581E+03
  1.3278E+04
  1.3278E+04
  1.3278E+04
  1.3278E+04
  9.1583E+03
  1.3278E+04
  9.1583E+03
  1.3278E+04
  9.1583E+03
  5.0385E+03
  5.0385E+03
  5.0385E+03
  9.1580E+03
  9.1580E+03
  9.1580E+03
  1.3278E+04
  1.3278E+04
  1.3278E+04
  1.3276E+04
  9.1583E+03
  1.3276E+04
  9.1583E+03
  1.3276E+04
  9.1583E+03
  5.0385E+03
  5.0385E+03
  5.0385E+03
  9.1580E+03
  9.1580E+03
  9.1580E+03
  1.3279E+04
  1.3279E+04
  1.3279E+04
  1.3273E+04
  9.1573E+03
  1.3273E+04
  9.1573E+03
  1.3273E+04
  9.1573E+03
  5.0385E+03
  5.0385E+03
  5.0385E+03
  9.1590E+03
  9.1590E+03
  9.1590E+03
  1.3282E+04
  1.3282E+04
  1.3282E+04
  1.3269E+04
  9.1539E+03
  1.3269E+04
  9.1539E+03
  1.3269E+04
  9.1539E+03
  5.0386E+03
  5.0386E+03
  5.0386E+03
  9.1625E+03
  9.1625E+03
  9.1625E+03
  1.3286E+04
  1.3286E+04
  1.3286E+04
  1.3271E+04
  9.1440E+03
  1.3271E+04
  9.1440E+03
  1.3271E+04
  9.1440E+03
  5.0390E+03
  5.0390E+03
  5.0390E+03
  9.1728E+03
  9.1728E+03
  9.1728E+03
  1.3284E+04
  1.3284E+04
  1.3284E+04
  1.3276E+04
  9.1369E+03
  1.3276E+04
  9.1369E+03
  1.3276E+04
  9.1369E+03
  5.0393E+03
  5.0393E+03
  5.0393E+03
  9.1803E+03
  9.1803E+03
  9.1803E+03
  1.3280E+04
  1.3280E+04
  1.3280E+04
   7.5000E-01
  1.9916E+04
  1.9916E+04
  1.3737E+04
  1.3737E+04
  1.9916E+04
  1.9916E+04
  1.3737E+04
  1.3737E+04
  1.9916E+04
  1.9916E+04
  1.3737E+04
  1.3737E+04
  7.5575E+03
  7.5575E+03
  7.5575E+03
  7.5575E+03
  7.5575E+03
  7.5575E+03
  1.3737E+04
  1.3737E+04
  1.3737E+04
  1.3737E+04
  1.3737E+04
  1.3737E+04
  1.9916E+04
  1.9916E+04
  1.9916E+04
  1.9916E+04
  1.9916E+04
  1.9916E+04
  1.9916E+04
  1.3737E+04
  1.9916E+04
  1.3737E+04
  1.9916E+04
  1.3737E+04
  7.5575E+03
  7.5575E+03
  7.5575E+03
  1.3737E+04
  1.3737E+04
  1.3737E+04
  1.9916E+04
  1.9916E+04
  1.9916E+04
  1.9916E+04
  1.3737E+04
  1.9916E+04
  1.3737E+04
  1.9916E+04
  1.3737E+04
  7.5575E+03
  7.5575E+03
  7.5575E+03
  1.3737E+04
  1.3737E+04
  1.3737E+04
  1.9916E+04
  1.9916E+04
  1.9916E+04
  1.9916E+04
  1.3737E+04
  1.9916E+04
  1.3737E+04
  1.9916E+04
  1.3737E+04
  7.5575E+03
  7.5575E+03
  7.5575E+03
  1.3737E+04
  1.3737E+04
  1.3737E+04
  1.9916E+04
  1.9916E+04
  1.9916E+04
  1.9916E+04
  1.3737E+04
  1.9916E+04
  1.3737E+04
  1.9916E+04
  1.3737E+04
  7.5575E+03
  7.5575E+03
  7.5575E+03
  1.3737E+04
  1.3737E+04
  1.3737E+04
  1.9916E+04
  1.9916E+04
  1.9916E+04
  1.9916E+04
  1.3737E+04
  1.9916E+04
  1.3737E+04
  1.9916E+04
  1.3737E+04
  7.5575E+03
  7.5575E+03
  7.5575E+03
  1.3737E+04
  1.3737E+04
  1.3737E+04
  1.9916E+04
  1.9916E+04
  1.9916E+04
  1.9916E+04
  1.3737E+04
  1.9916E+04
  1.3737E+04
  1.9916E+04
  1.3737E+04
  7.5575E+03
  7.5575E+03
  7.5575E+03
  1.3737E+04
  1.3737E+04
  1.3737E+04
  1.9916E+04
  1.9916E+04
  1.9916E+04
  1.9916E+04
  1.3737E+04
  1.9916E+04
  1.3737E+04
  1.9916E+04
  1.3737E+04
  7.5575E+03
  7.5575E+03
  7.5575E+03
  1.3737E+04
  1.3737E+04
  1.3737E+04
  1.9916E+04
  1.9916E+04
  1.9916E+04
  1.9916E+04
  1.3737E+04
  1.9916E+04
  1.3737E+04
  1.9916E+04
  1.3737E+04
  7.5575E+03
  7.5575E+03
  7.5575E+03
  1.3737E+04
  1.3737E+04
  1.3737E+04
  1.9916E+04
  1.9916E+04
  1.9916E+04
  1.9916E+04
  1.3737E+04
  1.9916E+04
  1.3737E+04
  1.9916E+04
  1.3737E+04
  7.5575E+03
  7.5575E+03
  7.5575E+03
  1.3737E+04
  1.3737E+04
  1.3737E+04
  1.9916E+04
  1.9916E+04
  1.9916E+04
  1.9916E+04
  1.3737E+04
  1.9916E+04
  1.3737E+04
  1.9916E+04
  1.3737E+04
  7.5575E+03
  7.5575E+03
  7.5575E+03
  1.3737E+04
  1.3737E+04
  1.3737E+04
  1.9916E+04
  1.9916E+04
  1.9916E+04
  1.9916E+04
  1.3737E+04
  1.9916E+04
  1.3737E+04
  1.9916E+04
  1.3737E+04
  7.5575E+03
  7.5575E+03
  7.5575E+03
  1.3737E+04
  1.3737E+04
  1.3737E+04
  1.9916E+04
  1.9916E+04
  1.9916E+04
  1.9916E+04
  1.3737E+04
  1.9916E+04
  1.3737E+04
  1.9916E+04
  1.3737E+04
  7.5575E+03
  7.5575E+03
  7.5575E+03
  1.3737E+04
  1.3737E+04
  1.3737E+04
  1.9916E+04
  1.9916E+04
  1.9916E+04
  1.9916E+04
  1.3737E+04
  1.9916E+04
  1.3737E+04
  1.9916E+04
  1.3737E+04
  7.5575E+03
  7.5575E+03
  7.5575E+03
  1.3737E+04
  1.3737E+04
  1.3737E+04
  1.9916E+04
  1.9916E+04
  1.9916E+04
  1.9915E+04
  1.3737E+04
  1.9915E+04
  1.3737E+04
  1.9915E+04
  1.3737E+04
  7.5575E+03
  7.5575E+03
  7.5575E+03
  1.3736E+04
  1.3736E+04
  1.3736E+04
  1.9916E+04
  1.9916E+04
  1.9916E+04
  1.9913E+04
  1.3737E+04
  1.9913E+04
  1.3737E+04
  1.9913E+04
  1.3737E+04
  7.5575E+03
  7.5575E+03
  7.5575E+03
  1.3736E+04
  1.3736E+04
  1.3736E+04
  1.9919E+04
  1.9919E+04
  1.9919E+04
  1.9906E+04
  1.3735E+04
  1.9906E+04
  1.3735E+04
  1.9906E+04
  1.3735E+04
  7.5575E+03
  7.5575E+03
  7.5575E+03
  1.3739E+04
  1.3739E+04
  1.3739E+04
  1.9926E+04
  1.9926E+04
  1.9926E+04
  1.9897E+04
  1.3727E+04
  1.9897E+04
  1.3727E+04
  1.9897E+04
  1.3727E+04
  7.5576E+03
  7.5576E+03
  7.5576E+03
  1.3746E+04
  1.3746E+04
  1.3746E+04
  1.9935E+04
  1.9935E+04
  1.9935E+04
  1.9902E+04
  1.3705E+04
  1.9902E+04
  1.3705E+04
  1.9902E+04
  1.3705E+04
  7.5589E+03
  7.5589E+03
  7.5589E+03
  1.3770E+04
  1.3770E+04
  1.3770E+04
  1.9931E+04
  1.9931E+04
  1.9931E+04
  1.9911E+04
  1.3689E+04
  1.9911E+04
  1.3689E+04
  1.9911E+04
  1.3689E+04
  7.5601E+03
  7.5601E+03
  7.5601E+03
  1.3787E+04
  1.3787E+04
  1.3787E+04
  1.9922E+04
  1.9922E+04
  1.9922E+04
   1.0000E+00
  2.6553E+04
  2.6553E+04
  1.8315E+04
  1.8315E+04
  2.6553E+04
  2.6553E+04
  1.8315E+04
  1.8315E+04
  2.6553E+04
  2.6553E+04
  1.8315E+04
  1.8315E+04
  1.0076E+04
  1.0076E+04
  1.0076E+04
  1.0076E+04
  1.0076E+04
  1.0076E+04
  1.8315E+04
  1.8315E+04
  1.8315E+04
  1.8315E+04
  1.8315E+04
  1.8315E+04
  2.6553E+04
  2.6553E+04
  2.6553E+04
  2.6553E+04
  2.6553E+04
  2.6553E+04
  2.6553E+04
  1.8315E+04
  2.6553E+04
  1.8315E+04
  2.6553E+04
  1.8315E+04
  1.0076E+04
  1.0076E+04
  1.0076E+04
  1.8315E+04
  1.8315E+04
  1.8315E+04
  2.6553E+04
  2.6553E+04
  2.6553E+04
  2.6553E+04
  1.8315E+04
  2.6553E+04
  1.8315E+04
  2.6553E+04
  1.8315E+04
  1.0076E+04
  1.0076E+04
  1.0076E+04
  1.8315E+04
  1.8315E+04
  1.8315E+04
  2.6553E+04
  2.6553E+04
  2.6553E+04
  2.6553E+04
  1.8315E+04
  2.6553E+04
  1.8315E+04
  2.6553E+04
  1.8315E+04
  1.0076E+04
  1.0076E+04
  1.0076E+04
  1.8315E+04
  1.8315E+04
  1.8315E+04
  2.6553E+04
  2.6553E+04
  2.6553E+04
  2.6553E+04
  1.8315E+04
  2.6553E+04
  1.8315E+04
  2.6553E+04
  1.8315E+04
  1.0076E+04
  1.0076E+04
  1.0076E+04
  1.8315E+04
  1.8315E+04
  1.8315E+04
  2.6553E+04
  2.6553E+04
  2.6553E+04
  2.6553E+04
  1.8315E+04
  2.6553E+04
  1.8315E+04
  2.6553E+04
  1.8315E+04
  1.0076E+04
  1.0076E+04
  1.0076E+04
  1.8315E+04
  1.8315E+04
  1.8315E+04
  2.6553E+04
  2.6553E+04
  2.6553E+04
  2.6553E+04
  1.8315E+04
  2.6553E+04
  1.8315E+04
  2.6553E+04
  1.8315E+04
  1.0076E+04
  1.0076E+04
  1.0076E+04
  1.8315E+04
  1.8315E+04
  1.8315E+04
  2.6553E+04
  2.6553E+04
  2.6553E+04
  2.6553E+04
  1.8315E+04
  2.6553E+04
  1.8315E+04
  2.6553E+04
  1.8315E+04
  1.0076E+04
  1.0076E+04
  1.0076E+04
  1.8315E+04
  1.8315E+04
  1.8315E+04
  2.6553E+04
  2.6553E+04
  2.6553E+04
  2.6553E+04
  1.8315E+04
  2.6553E+04
  1.8315E+04
  2.6553E+04
  1.8315E+04
  1.0076E+04
  1.0076E+04
  1.0076E+04
  1.8315E+04
  1.8315E+04
  1.8315E+04
  2.6553E+04
  2.6553E+04
  2.6553E+04
  2.6553E+04
  1.8315E+04
  2.6553E+04
  1.8315E+04
  2.6553E+04
  1.8315E+04
  1.0076E+04
  1.0076E+04
  1.0076E+04
  1.8315E+04
  1.8315E+04
  1.8315E+04
  2.6553E+04
  2.6553E+04
  2.6553E+04
  2.6553E+04
  1.8315E+04
  2.6553E+04
  1.8315E+04
  2.6553E+04
  1.8315E+04
  1.0076E+04
  1.0076E+04
  1.0076E+04
  1.8315E+04
  1.8315E+04
  1.8315E+04
  2.6553E+04
  2.6553E+04
  2.6553E+04
  2.6553E+04
  1.8315E+04
  2.6553E+04
  1.8315E+04
  2.6553E+04
  1.8315E+04
  1.0076E+04
  1.0076E+04
  1.0076E+04
  1.8315E+04
  1.8315E+04
  1.8315E+04
  2.6553E+04
  2.6553E+04
  2.6553E+04
  2.6553E+04
  1.8315E+04
  2.6553E+04
  1.8315E+04
  2.6553E+04
  1.8315E+04
  1.0076E+04
  1.0076E+04
  1.0076E+04
  1.8315E+04
  1.8315E+04
  1.8315E+04
  2.6553E+04
  2.6553E+04
  2.6553E+04
  2.6553E+04
  1.8315E+04
  2.6553E+04
  1.8315E+04
  2.6553E+04
  1.8315E+04
  1.0076E+04
  1.0076E+04
  1.0076E+04
  1.8314E+04
  1.8314E+04
  1.8314E+04
  2.6553E+04
  2.6553E+04
  2.6553E+04
  2.6552E+04
  1.8315E+04
  2.6552E+04
  1.8315E+04
  2.6552E+04
  1.8315E+04
  1.0076E+04
  1.0076E+04
  1.0076E+04
  1.8314E+04
  1.8314E+04
  1.8314E+04
  2.6554E+04
  2.6554E+04
  2.6554E+04
  2.6548E+04
  1.8315E+04
  2.6548E+04
  1.8315E+04
  2.6548E+04
  1.8315E+04
  1.0076E+04
  1.0076E+04
  1.0076E+04
  1.8314E+04
  1.8314E+04
  1.8314E+04
  2.6558E+04
  2.6558E+04
  2.6558E+04
  2.6536E+04
  1.8311E+04
  2.6536E+04
  1.8311E+04
  2.6536E+04
  1.8311E+04
  1.0076E+04
  1.0076E+04
  1.0076E+04
  1.8318E+04
  1.8318E+04
  1.8318E+04
  2.6570E+04
  2.6570E+04
  2.6570E+04
  2.6519E+04
  1.8298E+04
  2.6519E+04
  1.8298E+04
  2.6519E+04
  1.8298E+04
  1.0076E+04
  1.0076E+04
  1.0076E+04
  1.8332E+04
  1.8332E+04
  1.8332E+04
  2.6587E+04
  2.6587E+04
  2.6587E+04
  2.6528E+04
  1.8259E+04
  2.6528E+04
  1.8259E+04
  2.6528E+04
  1.8259E+04
  1.0079E+04
  1.0079E+04
  1.0079E+04
  1.8374E+04
  1.8374E+04
  1.8374E+04
  2.6580E+04
  2.6580E+04
  2.6580E+04
  2.6545E+04
  1.8232E+04
  2.6545E+04
  1.8232E+04
  2.6545E+04
  1.8232E+04
  1.0082E+04
  1.0082E+04
  1.0082E+04
  1.8405E+04
  1.8405E+04
  1.8405E+04
  2.6564E+04
  2.6564E+04
  2.6564E+04
   1.2500E+00
  3.2709E+04
  3.2941E+04
  2.3108E+04
  2.3265E+04
  3.2709E+04
  3.2941E+04
  2.3108E+04
  2.3265E+04
  3.2709E+04
  3.2941E+04
  2.3108E+04
  2.3265E+04
  1.3507E+04
  1.3590E+04
  1.3507E+04
  1.3590E+04
  1.3507E+04
  1.3590E+04
  2.3108E+04
  2.3265E+04
  2.3108E+04
  2.3265E+04
  2.3108E+04
  2.3265E+04
  3.2709E+04
  3.2941E+04
  3.2709E+04
  3.2941E+04
  3.2709E+04
  3.2941E+04
  3.3180E+04
  2.3440E+04
  3.3180E+04
  2.3440E+04
  3.3180E+04
  2.3440E+04
  1.3699E+04
  1.3699E+04
  1.3699E+04
  2.3440E+04
  2.3440E+04
  2.3440E+04
  3.3180E+04
  3.3180E+04
  3.3180E+04
  3.3185E+04
  2.3454E+04
  3.3185E+04
  2.3454E+04
  3.3185E+04
  2.3454E+04
  1.3723E+04
  1.3723E+04
  1.3723E+04
  2.3454E+04
  2.3454E+04
  2.3454E+04
  3.3185E+04
  3.3185E+04
  3.3185E+04
  3.3182E+04
  2.3452E+04
  3.3182E+04
  2.3452E+04
  3.3182E+04
  2.3452E+04
  1.3721E+04
  1.3721E+04
  1.3721E+04
  2.3452E+04
  2.3452E+04
  2.3452E+04
  3.3182E+04
  3.3182E+04
  3.3182E+04
  3.3182E+04
  2.3451E+04
  3.3182E+04
  2.3451E+04
  3.3182E+04
  2.3451E+04
  1.3720E+04
  1.3720E+04
  1.3720E+04
  2.3451E+04
  2.3451E+04
  2.3451E+04
  3.3182E+04
  3.3182E+04
  3.3182E+04
  3.3182E+04
  2.3451E+04
  3.3182E+04
  2.3451E+04
  3.3182E+04
  2.3451E+04
  1.3720E+04
  1.3720E+04
  1.3720E+04
  2.3451E+04
  2.3451E+04
  2.3451E+04
  3.3182E+04
  3.3182E+04
  3.3182E+04
  3.3182E+04
  2.3451E+04
  3.3182E+04
  2.3451E+04
  3.3182E+04
  2.3451E+04
  1.3720E+04
  1.3720E+04
  1.3720E+04
  2.3451E+04
  2.3451E+04
  2.3451E+04
  3.3182E+04
  3.3182E+04
  3.3182E+04
  3.3182E+04
  2.3451E+04
  3.3182E+04
  2.3451E+04
  3.3182E+04
  2.3451E+04
  1.3720E+04
  1.3720E+04
  1.3720E+04
  2.3451E+04
  2.3451E+04
  2.3451E+04
  3.3182E+04
  3.3182E+04
  3.3182E+04
  3.3182E+04
  2.3451E+04
  3.3182E+04
  2.3451E+04
  3.3182E+04
  2.3451E+04
  1.3720E+04
  1.3720E+04
  1.3720E+04
  2.3451E+04
  2.3451E+04
  2.3451E+04
  3.3182E+04
  3.3182E+04
  3.3182E+04
  3.3182E+04
  2.3451E+04
  3.3182E+04
  2.3451E+04
  3.3182E+04
  2.3451E+04
  1.3720E+04
  1.3720E+04
  1.3720E+04
  2.3451E+04
  2.3451E+04
  2.3451E+04
  3.3182E+04
  3.3182E+04
  3.3182E+04
  3.3182E+04
  2.3451E+04
  3.3182E+04
  2.3451E+04
  3.3182E+04
  2.3451E+04
  1.3720E+04
  1.3720E+04
  1.3720E+04
  2.3451E+04
  2.3451E+04
  2.3451E+04
  3.3182E+04
  3.3182E+04
  3.3182E+04
  3.3182E+04
  2.3451E+04
  3.3182E+04
  2.3451E+04
  3.3182E+04
  2.3451E+04
  1.3720E+04
  1.3720E+04
  1.3720E+04
  2.3451E+04
  2.3451E+04
  2.3451E+04
  3.3182E+04
  3.3182E+04
  3.3182E+04
  3.3182E+04
  2.3451E+04
  3.3182E+04
  2.3451E+04
  3.3182E+04
  2.3451E+04
  1.3720E+04
  1.3720E+04
  1.3720E+04
  2.3451E+04
  2.3451E+04
  2.3451E+04
  3.3182E+04
  3.3182E+04
  3.3182E+04
  3.3183E+04
  2.3451E+04
  3.3183E+04
  2.3451E+04
  3.3183E+04
  2.3451E+04
  1.3720E+04
  1.3720E+04
  1.3720E+04
  2.3451E+04
  2.3451E+04
  2.3451E+04
  3.3182E+04
  3.3182E+04
  3.3182E+04
  3.3183E+04
  2.3452E+04
  3.3183E+04
  2.3452E+04
  3.3183E+04
  2.3452E+04
  1.3720E+04
  1.3720E+04
  1.3720E+04
  2.3451E+04
  2.3451E+04
  2.3451E+04
  3.3182E+04
  3.3182E+04
  3.3182E+04
  3.3179E+04
  2.3452E+04
  3.3179E+04
  2.3452E+04
  3.3179E+04
  2.3452E+04
  1.3722E+04
  1.3722E+04
  1.3722E+04
  2.3451E+04
  2.3451E+04
  2.3451E+04
  3.3185E+04
  3.3185E+04
  3.3185E+04
  3.3169E+04
  2.3450E+04
  3.3169E+04
  2.3450E+04
  3.3169E+04
  2.3450E+04
  1.3721E+04
  1.3721E+04
  1.3721E+04
  2.3458E+04
  2.3458E+04
  2.3458E+04
  3.3203E+04
  3.3203E+04
  3.3203E+04
  3.3145E+04
  2.3417E+04
  3.3145E+04
  2.3417E+04
  3.3145E+04
  2.3417E+04
  1.3695E+04
  1.3695E+04
  1.3695E+04
  2.3457E+04
  2.3457E+04
  2.3457E+04
  3.3214E+04
  3.3214E+04
  3.3214E+04
  3.3013E+04
  2.3254E+04
  3.3013E+04
  2.3254E+04
  3.3013E+04
  2.3254E+04
  1.3652E+04
  1.3652E+04
  1.3652E+04
  2.3449E+04
  2.3449E+04
  2.3449E+04
  3.3089E+04
  3.3089E+04
  3.3089E+04
  3.2899E+04
  2.3123E+04
  3.2899E+04
  2.3123E+04
  3.2899E+04
  2.3123E+04
  1.3635E+04
  1.3635E+04
  1.3635E+04
  2.3446E+04
  2.3446E+04
  2.3446E+04
  3.2969E+04
  3.2969E+04
  3.2969E+04
   1.5000E+00
  3.6000E+04
  3.6000E+04
  2.8807E+04
  2.9777E+04
  3.6000E+04
  3.6000E+04
  2.8807E+04
  2.9777E+04
  3.6000E+04
  3.6000E+04
  2.8807E+04
  2.9777E+04
  2.1613E+04
  2.3554E+04
  2.1613E+04
  2.3554E+04
  2.1613E+04
  2.3554E+04
  2.8807E+04
  2.9777E+04
  2.8807E+04
  2.9777E+04
  2.8807E+04
  2.9777E+04
  3.6000E+04
  3.6000E+04
  3.6000E+04
  3.6000E+04
  3.6000E+04
  3.6000E+04
  3.6000E+04
  3.0981E+04
  3.6000E+04
  3.0981E+04
  3.6000E+04
  3.0981E+04
  2.5962E+04
  2.5962E+04
  2.5962E+04
  3.0981E+04
  3.0981E+04
  3.0981E+04
  3.6000E+04
  3.6000E+04
  3.6000E+04
  3.6000E+04
  3.1301E+04
  3.6000E+04
  3.1301E+04
  3.6000E+04
  3.1301E+04
  2.6601E+04
  2.6601E+04
  2.6601E+04
  3.1301E+04
  3.1301E+04
  3.1301E+04
  3.6000E+04
  3.6000E+04
  3.6000E+04
  3.6000E+04
  3.1417E+04
  3.6000E+04
  3.1417E+04
  3.6000E+04
  3.1417E+04
  2.6834E+04
  2.6834E+04
  2.6834E+04
  3.1417E+04
  3.1417E+04
  3.1417E+04
  3.6000E+04
  3.6000E+04
  3.6000E+04
  3.6000E+04
  3.1461E+04
  3.6000E+04
  3.1461E+04
  3.6000E+04
  3.1461E+04
  2.6923E+04
  2.6923E+04
  2.6923E+04
  3.1461E+04
  3.1461E+04
  3.1461E+04
  3.6000E+04
  3.6000E+04
  3.6000E+04
  3.6000E+04
  3.1481E+04
  3.6000E+04
  3.1481E+04
  3.6000E+04
  3.1481E+04
  2.6962E+04
  2.6962E+04
  2.6962E+04
  3.1481E+04
  3.1481E+04
  3.1481E+04
  3.6000E+04
  3.6000E+04
  3.6000E+04
  3.6000E+04
  3.1490E+04
  3.6000E+04
  3.1490E+04
  3.6000E+04
  3.1490E+04
  2.6979E+04
  2.6979E+04
  2.6979E+04
  3.1490E+04
  3.1490E+04
  3.1490E+04
  3.6000E+04
  3.6000E+04
  3.6000E+04
  3.6000E+04
  3.1493E+04
  3.6000E+04
  3.1493E+04
  3.6000E+04
  3.1493E+04
  2.6986E+04
  2.6986E+04
  2.6986E+04
  3.1493E+04
  3.1493E+04
  3.1493E+04
  3.6000E+04
  3.6000E+04
  3.6000E+04
  3.6000E+04
  3.1494E+04
  3.6000E+04
  3.1494E+04
  3.6000E+04
  3.1494E+04
  2.6989E+04
  2.6989E+04
  2.6989E+04
  3.1494E+04
  3.1494E+04
  3.1494E+04
  3.6000E+04
  3.6000E+04
  3.6000E+04
  3.6000E+04
  3.1495E+04
  3.6000E+04
  3.1495E+04
  3.6000E+04
  3.1495E+04
  2.6989E+04
  2.6989E+04
  2.6989E+04
  3.1495E+04
  3.1495E+04
  3.1495E+04
  3.6000E+04
  3.6000E+04
  3.6000E+04
  3.6000E+04
  3.1495E+04
  3.6000E+04
  3.1495E+04
  3.6000E+04
  3.1495E+04
  2.6989E+04
  2.6989E+04
  2.6989E+04
  3.1495E+04
  3.1495E+04
  3.1495E+04
  3.6000E+04
  3.6000E+04
  3.6000E+04
  3.6000E+04
  3.1494E+04
  3.6000E+04
  3.1494E+04
  3.6000E+04
  3.1494E+04
  2.6987E+04
  2.6987E+04
  2.6987E+04
  3.1494E+04
  3.1494E+04
  3.1494E+04
  3.6000E+04
  3.6000E+04
  3.6000E+04
  3.6000E+04
  3.1491E+04
  3.6000E+04
  3.1491E+04
  3.6000E+04
  3.1491E+04
  2.6982E+04
  2.6982E+04
  2.6982E+04
  3.1491E+04
  3.1491E+04
  3.1491E+04
  3.6000E+04
  3.6000E+04
  3.6000E+04
  3.6000E+04
  3.1485E+04
  3.6000E+04
  3.1485E+04
  3.6000E+04
  3.1485E+04
  2.6970E+04
  2.6970E+04
  2.6970E+04
  3.1485E+04
  3.1485E+04
  3.1485E+04
  3.6000E+04
  3.6000E+04
  3.6000E+04
  3.6000E+04
  3.1471E+04
  3.6000E+04
  3.1471E+04
  3.6000E+04
  3.1471E+04
  2.6942E+04
  2.6942E+04
  2.6942E+04
  3.1471E+04
  3.1471E+04
  3.1471E+04
  3.6000E+04
  3.6000E+04
  3.6000E+04
  3.6000E+04
  3.1441E+04
  3.6000E+04
  3.1441E+04
  3.6000E+04
  3.1441E+04
  2.6882E+04
  2.6882E+04
  2.6882E+04
  3.1441E+04
  3.1441E+04
  3.1441E+04
  3.6000E+04
  3.6000E+04
  3.6000E+04
  3.6000E+04
  3.1353E+04
  3.6000E+04
  3.1353E+04
  3.6000E+04
  3.1353E+04
  2.6710E+04
  2.6710E+04
  2.6710E+04
  3.1357E+04
  3.1357E+04
  3.1357E+04
  3.6000E+04
  3.6000E+04
  3.6000E+04
  3.6000E+04
  3.1078E+04
  3.6000E+04
  3.1078E+04
  3.6000E+04
  3.1078E+04
  2.6198E+04
  2.6198E+04
  2.6198E+04
  3.1121E+04
  3.1121E+04
  3.1121E+04
  3.6000E+04
  3.6000E+04
  3.6000E+04
  3.6000E+04
  3.0300E+04
  3.6000E+04
  3.0300E+04
  3.6000E+04
  3.0300E+04
  2.5041E+04
  2.5041E+04
  2.5041E+04
  3.0741E+04
  3.0741E+04
  3.0741E+04
  3.6000E+04
  3.6000E+04
  3.6000E+04
  3.6000E+04
  2.9730E+04
  3.6000E+04
  2.9730E+04
  3.6000E+04
  2.9730E+04
  2.4265E+04
  2.4265E+04
  2.4265E+04
  3.0534E+04
  3.0534E+04
  3.0534E+04
  3.6000E+04
  3.6000E+04
  3.6000E+04
