Scalar VONMISES under Static for nodeset
189
   0.0000E+00
  7.8139E+02
  7.0757E+02
  7.8139E+02
  7.0757E+02
  6.2789E+02
  7.0757E+02
  7.8139E+02
  7.0757E+02
  7.8139E+02
  9.8610E+02
  9.7727E+02
  9.8610E+02
  9.7727E+02
  9.6829E+02
  9.7727E+02
  9.8610E+02
  9.7727E+02
  9.8610E+02
  9.8072E+02
  1.0065E+03
  9.8072E+02
  1.0065E+03
  1.0336E+03
  1.0065E+03
  9.8072E+02
  1.0065E+03
  9.8072E+02
  9.9983E+02
  1.0007E+03
  9.9983E+02
  1.0007E+03
  1.0014E+03
  1.0007E+03
  9.9983E+02
  1.0007E+03
  9.9983E+02
  1.0001E+03
  1.0001E+03
  1.0001E+03
  1.0001E+03
  9.9947E+02
  1.0001E+03
  1.0001E+03
  1.0001E+03
  1.0001E+03
  1.0000E+03
  9.9996E+02
  1.0000E+03
  9.9996E+02
  1.0000E+03
  9.9996E+02
  1.0000E+03
  9.9996E+02
  1.0000E+03
  1.0000E+03
  1.0000E+03
  1.0000E+03
  1.0000E+03
  1.0000E+03
  1.0000E+03
  1.0000E+03
  1.0000E+03
  1.0000E+03
  1.0000E+03
  1.0000E+03
  1.0000E+03
  1.0000E+03
  1.0000E+03
  1.0000E+03
  1.0000E+03
  1.0000E+03
  1.0000E+03
  1.0000E+03
  1.0000E+03
  1.0000E+03
  1.0000E+03
  1.0000E+03
  1.0000E+03
  1.0000E+03
  1.0000E+03
  1.0000E+03
  1.0000E+03
  1.0000E+03
  1.0000E+03
  1.0000E+03
  1.0000E+03
  1.0000E+03
  1.0000E+03
  1.0000E+03
  1.0000E+03
  1.0000E+03
  1.0000E+03
  1.0000E+03
  1.0000E+03
  1.0000E+03
  1.0000E+03
  1.0000E+03
  1.0000E+03
  1.0000E+03
  1.0000E+03
  1.0000E+03
  1.0000E+03
  1.0000E+03
  1.0000E+03
  1.0000E+03
  1.0000E+03
  1.0000E+03
  1.0000E+03
  1.0000E+03
  1.0000E+03
  1.0000E+03
  1.0000E+03
  1.0000E+03
  1.0000E+03
  1.0000E+03
  1.0000E+03
  1.0000E+03
  1.0000E+03
  1.0000E+03
  1.0000E+03
  1.0000E+03
  1.0000E+03
  1.0000E+03
  1.0000E+03
  1.0000E+03
  1.0000E+03
  1.0000E+03
  1.0000E+03
  1.0000E+03
  1.0000E+03
  1.0000E+03
  1.0000E+03
  1.0000E+03
  1.0000E+03
  1.0000E+03
  1.0000E+03
  1.0000E+03
  1.0000E+03
  1.0000E+03
  1.0000E+03
  1.0000E+03
  1.0000E+03
  1.0000E+03
  1.0000E+03
  1.0000E+03
  1.0000E+03
  1.0000E+03
  1.0000E+03
  1.0000E+03
  1.0000E+03
  1.0000E+03
  1.0000E+03
  1.0000E+03
  1.0000E+03
  1.0000E+03
  1.0000E+03
  1.0000E+03
  1.0000E+03
  1.0000E+03
  1.0000E+03
  1.0000E+03
  1.0000E+03
  1.0000E+03
  1.0000E+03
  1.0000E+03
  1.0000E+03
  1.0000E+03
  1.0000E+03
  1.0000E+03
  1.0000E+03
  1.0000E+03
  1.0000E+03
  1.0000E+03
  1.0000E+03
  1.0000E+03
  1.0000E+03
  1.0000E+03
  1.0000E+03
  1.0000E+03
  1.0000E+03
  1.0000E+03
  1.0000E+03
  1.0000E+03
  1.0000E+03
  1.0000E+03
  1.0000E+03
  1.0000E+03
  1.0000E+03
  1.0000E+03
