Scalar VONMISES_STRAIN under Static for nodeset
189
   0.0000E+00
  4.9552E-01
  4.4870E-01
  4.9552E-01
  4.4870E-01
  3.9818E-01
  4.4870E-01
  4.9552E-01
  4.4870E-01
  4.9552E-01
  6.2533E-01
  6.1973E-01
  6.2533E-01
  6.1973E-01
  6.1404E-01
  6.1973E-01
  6.2533E-01
  6.1973E-01
  6.2533E-01
  6.2192E-01
  6.3824E-01
  6.2192E-01
  6.3824E-01
  6.5543E-01
  6.3824E-01
  6.2192E-01
  6.3824E-01
  6.2192E-01
  6.3404E-01
  6.3457E-01
  6.3404E-01
  6.3457E-01
  6.3506E-01
  6.3457E-01
  6.3404E-01
  6.3457E-01
  6.3404E-01
  6.3419E-01
  6.3421E-01
  6.3419E-01
  6.3421E-01
  6.3381E-01
  6.3421E-01
  6.3419E-01
  6.3421E-01
  6.3419E-01
  6.3417E-01
  6.3412E-01
  6.3417E-01
  6.3412E-01
  6.3415E-01
  6.3412E-01
  6.3417E-01
  6.3412E-01
  6.3417E-01
  6.3414E-01
  6.3415E-01
  6.3414E-01
  6.3415E-01
  6.3415E-01
  6.3415E-01
  6.3414E-01
  6.3415E-01
  6.3414E-01
  6.3415E-01
  6.3415E-01
  6.3415E-01
  6.3415E-01
  6.3415E-01
  6.3415E-01
  6.3415E-01
  6.3415E-01
  6.3415E-01
  6.3415E-01
  6.3415E-01
  6.3415E-01
  6.3415E-01
  6.3415E-01
  6.3415E-01
  6.3415E-01
  6.3415E-01
  6.3415E-01
  6.3415E-01
  6.3415E-01
  6.3415E-01
  6.3415E-01
  6.3415E-01
  6.3415E-01
  6.3415E-01
  6.3415E-01
  6.3415E-01
  6.3415E-01
  6.3415E-01
  6.3415E-01
  6.3415E-01
  6.3415E-01
  6.3415E-01
  6.3415E-01
  6.3415E-01
  6.3415E-01
  6.3415E-01
  6.3415E-01
  6.3415E-01
  6.3415E-01
  6.3415E-01
  6.3415E-01
  6.3415E-01
  6.3415E-01
  6.3415E-01
  6.3415E-01
  6.3415E-01
  6.3415E-01
  6.3415E-01
  6.3415E-01
  6.3415E-01
  6.3415E-01
  6.3415E-01
  6.3415E-01
  6.3415E-01
  6.3415E-01
  6.3415E-01
  6.3415E-01
  6.3415E-01
  6.3415E-01
  6.3415E-01
  6.3415E-01
  6.3415E-01
  6.3415E-01
  6.3415E-01
  6.3415E-01
  6.3415E-01
  6.3415E-01
  6.3415E-01
  6.3415E-01
  6.3415E-01
  6.3415E-01
  6.3415E-01
  6.3415E-01
  6.3415E-01
  6.3415E-01
  6.3415E-01
  6.3415E-01
  6.3415E-01
  6.3415E-01
  6.3415E-01
  6.3415E-01
  6.3415E-01
  6.3415E-01
  6.3415E-01
  6.3415E-01
  6.3415E-01
  6.3415E-01
  6.3415E-01
  6.3415E-01
  6.3415E-01
  6.3415E-01
  6.3415E-01
  6.3415E-01
  6.3415E-01
  6.3415E-01
  6.3415E-01
  6.3415E-01
  6.3415E-01
  6.3415E-01
  6.3415E-01
  6.3415E-01
  6.3415E-01
  6.3415E-01
  6.3415E-01
  6.3415E-01
  6.3415E-01
  6.3415E-01
  6.3415E-01
  6.3415E-01
  6.3415E-01
  6.3415E-01
  6.3415E-01
  6.3415E-01
  6.3415E-01
  6.3415E-01
  6.3415E-01
  6.3415E-01
  6.3415E-01
  6.3415E-01
  6.3415E-01
  6.3415E-01
  6.3415E-01
  6.3415E-01
  6.3415E-01
  6.3415E-01
